%RWF=/scratch/bdw2292/Gau-aniline/,20GB
%Nosave
%Chk=aniline-dma_temp.chk
%Mem=5GB
%Nproc=4
#P MP2/6-311G** Sp Density=MP2 MaxDisk=20GB

 aniline Gaussian Optimization on bme-nova.bme.utexas.edu

0 1
N	
C	
C	
C	
C	
C	
C	
H	
H	
H	
H	
H	
H	
H	
	
