molecule { 
0 1
N -1.657026541227 -0.551230501367 0.29617449044
C -0.405237468369 -0.247231345633 -0.158134952149
C 0.707085784206 -0.34552920948 0.873872124336
N 1.739581154808 0.622908783921 0.532338576373
O -0.166682687891 -0.000686258217 -1.338640085812
H 1.036993681017 -1.398435722869 0.867784134451
H 0.320442469609 -0.140449327496 1.878622231034
H -2.418819358415 -0.420310525638 -0.357127712374
H -1.875622792159 -0.486183373559 1.279593614348
H 2.629612574337 0.343036170997 0.937241135067
H 1.845073186672 0.605811716333 -0.48134430704
no_reorient
}
memory 20GB
set_num_threads(5)
psi4_io.set_default_path("/scratch/liuchw/Psi4-25_27_Index_0-farH_in17")
set freeze_core True
set PROPERTIES_ORIGIN ["COM"]
set cubeprop_tasks ['esp']
set basis 6-311G** 
E, wfn = properties('mp2',properties=['dipole'],return_wfn=True)
cubeprop(wfn)
fchk(wfn, "25_27_Index_0-dma.fchk")
clean()
