molecule { 
0 1
 N    2.967700   -1.225900    0.938300
 C    4.207900   -0.750700    0.463500
 C    5.417000   -0.912000    1.425500
 N    6.609300   -0.198000    0.919400
 O    4.378600   -0.195400   -0.626700
 H    5.638500   -1.984900    1.468800
 H    5.161100   -0.544900    2.425100
 H    2.126700   -1.148600    0.348700
 H    2.903100   -1.650200    1.874600
 H    7.171200    0.138500    1.714400
 H    7.175600   -0.839100    0.345700
}
set {
  geom_maxiter 400
  g_convergence GAU_LOOSE
  dynamic_level 1
}
geometric_keywords = {
 'coordsys' : 'tric',
 'convergence_cmax' : 1e0,
 'convergence_set' : 'GAU_LOOSE',
 'convergence_energy' : 1e-4,
}
memory 20GB
set_num_threads(5)
psi4_io.set_default_path("/scratch/liuchw/Psi4-25_27_Index_0-farH_in17")
basis {
assign 6-31G*
}
opt_finished = False
if not opt_finished:
    try:
        ener, opt_hist = optimize('mp2',engine='geometric',optimizer_keywords=geometric_keywords, return_history=True)
        opt_finished = len(opt_hist['energy']) < 400
    except Exception as e:
        core.print_out('Exception: %s'%(e))
if not opt_finished:
    try:
        optimize('mp2')
    except:
        set opt_coordinates both
        optimize('mp2')
    opt_finished = True
clean()
assert opt_finished

