%RWF=/scratch/bdw2292/Gau-ModifiedRes/,100GB
%Nosave
%Chk=ModifiedRes-opt-11-5-7-15-200.chk
%Mem=20GB
%Nproc=6
#P opt=(,maxcycle=400) HF/6-31G* MaxDisk=100GB

ModifiedRes Rotatable Bond Optimization on g2-node38.bme.utexas.edu

0 1
 C    1.952220   -1.834014    0.490523
 O    2.651943   -1.784390   -0.527586
 N    0.961813   -0.931606    0.750188
 H    0.574850   -0.908293    1.689478
 C    0.596898    0.144349   -0.188303
 H    0.714310   -0.275039   -1.198108
 C    1.558035    1.340021   -0.016272
 O    1.179049    2.338283    0.598776
 H   -0.956520    1.073489    1.004753
 H   -1.112908    1.330249   -0.750798
 C   -0.860661    0.602416    0.023004
 S   -2.040108   -0.813996   -0.100521
 C   -3.508538    0.044381   -0.132438
 N   -4.546055    0.617493   -0.156686
 N    2.788787    1.195079   -0.573646
 H    2.092921   -2.595073    1.274140
 H    3.051539    0.296512   -0.970955
 H    3.449526    1.955939   -0.489749

11 5 7 15 F
3 5 7 15 F
3 5 7 8 F
11 5 7 8 F
3 5 11 12 F
7 5 11 12 F
5 11 12 13 F

