%RWF=/scratch/bdw2292/Gau-ModifiedRes/,100GB
%Nosave
%Chk=ModifiedRes-opt-11-5-7-15-087.chk
%Mem=20GB
%Nproc=6
#P opt=(,maxcycle=400) HF/6-31G* MaxDisk=100GB

ModifiedRes Rotatable Bond Optimization on g2-node38.bme.utexas.edu

0 1
 C    1.911280   -1.920849    0.516313
 O    2.576423   -1.954565   -0.517774
 N    0.944579   -0.986350    0.756832
 H    0.535757   -0.976828    1.687164
 C    0.616316    0.119617   -0.163364
 H    0.749308   -0.289432   -1.175049
 C    1.572160    1.325580   -0.003630
 O    1.892196    1.969056   -1.001091
 H   -0.951569    1.055838    1.025337
 H   -1.067081    1.330181   -0.720684
 C   -0.833377    0.585985    0.046394
 S   -2.029942   -0.813389   -0.106419
 C   -3.478839    0.075680   -0.145271
 N   -4.500400    0.675382   -0.173195
 N    2.016140    1.628074    1.248570
 H    2.049506   -2.646824    1.333766
 H    1.832876    1.044873    2.054965
 H    2.646966    2.415769    1.319235

11 5 7 15 F
3 5 7 15 F
3 5 7 8 F
11 5 7 8 F
3 5 11 12 F
7 5 11 12 F
5 11 12 13 F

