%RWF=/scratch/bdw2292/Gau-ModifiedRes/,100GB
%Nosave
%Chk=ModifiedRes-sp-11-5-7-15-163.chk
%Mem=20GB
%Nproc=6
#P MP2/6-311++G** SP SCF=(qc,maxcycle=800) Guess=Indo MaxDisk=100GB Pop=NBORead

ModifiedRes Rotatable Bond SP Calculation on g2-node38.bme.utexas.edu

0 1
 C    1.944810   -1.856052    0.358708
 O    2.628311   -1.825502   -0.667663
 N    1.011636   -0.904282    0.643749
 H    0.674321   -0.860811    1.601419
 C    0.579470    0.158723   -0.288220
 H    0.640452   -0.265985   -1.299796
 C    1.525698    1.384976   -0.217353
 O    1.035411    2.515271   -0.255107
 H   -0.925390    1.019055    1.032518
 H   -1.168316    1.356103   -0.694166
 C   -0.864229    0.594687    0.028224
 S   -2.039075   -0.825713   -0.096857
 C   -3.508343    0.014395    0.075556
 N   -4.523603    0.619402    0.168383
 N    2.862347    1.155245   -0.118850
 H    2.067601   -2.627001    1.135533
 H    3.237683    0.249117   -0.380960
 H    3.470335    1.962287   -0.072220

