%RWF=/scratch/bdw2292/Gau-ModifiedRes/,100GB
%Nosave
%Chk=ModifiedRes-opt-11-5-7-15-125.chk
%Mem=20GB
%Nproc=6
#P opt=(,maxcycle=400) HF/6-31G* MaxDisk=100GB

ModifiedRes Rotatable Bond Optimization on g2-node38.bme.utexas.edu

0 1
 C    1.899307   -1.936319    0.522634
 O    2.611856   -1.926903   -0.479740
 N    0.933057   -1.000092    0.754108
 H    0.514427   -0.988333    1.680365
 C    0.614002    0.114742   -0.161365
 H    0.753190   -0.286987   -1.174590
 C    1.566309    1.326343    0.017995
 O    1.351641    2.323764   -0.672368
 H   -0.951371    1.042218    1.031451
 H   -1.062739    1.332939   -0.716622
 C   -0.836721    0.582376    0.047126
 S   -2.038040   -0.811448   -0.116490
 C   -3.488365    0.075810   -0.153072
 N   -4.513328    0.670401   -0.179848
 N    2.589895    1.267620    0.913404
 H    2.000287   -2.692525    1.317333
 H    2.901362    0.397963    1.323465
 H    3.177230    2.088831    0.977414

11 5 7 15 F
3 5 7 15 F
3 5 7 8 F
11 5 7 8 F
3 5 11 12 F
7 5 11 12 F
5 11 12 13 F

