%RWF=/scratch/bdw2292/Gau-ModifiedRes/,100GB
%Nosave
%Chk=ModifiedRes-opt-11-5-7-15-144.chk
%Mem=20GB
%Nproc=6
#P opt=(,maxcycle=400) HF/6-31G* MaxDisk=100GB

ModifiedRes Rotatable Bond Optimization on g2-node38.bme.utexas.edu

0 1
 C    1.893145   -1.927857    0.545623
 O    2.678549   -1.867263   -0.400579
 N    0.929252   -0.987230    0.756901
 H    0.508286   -0.967323    1.681855
 C    0.609822    0.125219   -0.164725
 H    0.747870   -0.273451   -1.179021
 C    1.569819    1.330699    0.022182
 O    1.184832    2.434638   -0.368437
 H   -0.957219    1.041850    1.031410
 H   -1.076161    1.336137   -0.716914
 C   -0.845119    0.586419    0.044930
 S   -2.040440   -0.813144   -0.119460
 C   -3.498195    0.062746   -0.152359
 N   -4.529357    0.647029   -0.176975
 N    2.786684    1.143684    0.599905
 H    1.937130   -2.720630    1.308926
 H    3.228585    0.233314    0.569962
 H    3.364816    1.966762    0.710376

11 5 7 15 F
3 5 7 15 F
3 5 7 8 F
11 5 7 8 F
3 5 11 12 F
7 5 11 12 F
5 11 12 13 F

