%RWF=/scratch/bdw2292/Gau-ModifiedRes/,100GB
%Nosave
%Chk=ModifiedRes-opt-5-11-12-13-071.chk
%Mem=20GB
%Nproc=6
#P opt=(,maxcycle=400) HF/6-31G* MaxDisk=100GB

ModifiedRes Rotatable Bond Optimization on g2-node38.bme.utexas.edu

0 1
 C    1.991422   -1.819222    0.479177
 O    2.685045   -1.756984   -0.543739
 N    0.996294   -0.926149    0.746445
 H    0.621593   -0.911645    1.690907
 C    0.608253    0.145942   -0.187774
 H    0.712989   -0.268063   -1.200786
 C    1.572094    1.338080   -0.018706
 O    1.193877    2.334802    0.600204
 H   -0.945852    1.074075    1.008143
 H   -1.089084    1.326603   -0.752124
 C   -0.859221    0.597616    0.028034
 S   -2.101121   -0.766059   -0.082619
 C   -1.793848   -1.637662    1.350177
 N   -1.520837   -2.244133    2.333531
 N    2.799769    1.195997   -0.583566
 H    2.140774   -2.582398    1.258624
 H    3.060230    0.292280   -0.971243
 H    3.465124    1.952119   -0.494884

5 11 12 13 F
3 5 11 12 F
7 5 11 12 F
11 5 7 15 F
3 5 7 15 F
3 5 7 8 F
11 5 7 8 F

