%RWF=/scratch/bdw2292/Gau-ModifiedRes/,100GB
%Nosave
%Chk=ModifiedRes-opt-11-5-7-15-276.chk
%Mem=20GB
%Nproc=6
#P opt=(,maxcycle=400) HF/6-31G* MaxDisk=100GB

ModifiedRes Rotatable Bond Optimization on g2-node38.bme.utexas.edu

0 1
 C    1.952376   -1.832302    0.483833
 O    2.545351   -1.869239   -0.597380
 N    0.963795   -0.930926    0.751261
 H    0.582356   -0.907852    1.692361
 C    0.594298    0.144306   -0.192011
 H    0.709769   -0.281799   -1.199840
 C    1.560553    1.335396   -0.022389
 O    2.108415    1.525659    1.062999
 H   -0.965938    1.078565    0.994782
 H   -1.122065    1.329061   -0.752502
 C   -0.860206    0.600111    0.017223
 S   -2.033149   -0.822224   -0.105032
 C   -3.497230    0.042635   -0.138430
 N   -4.527936    0.626868   -0.163514
 N    1.739986    2.119288   -1.119840
 H    2.172254   -2.527846    1.309030
 H    1.379530    1.843924   -2.025097
 H    2.378641    2.898174   -1.027355

11 5 7 15 F
3 5 7 15 F
3 5 7 8 F
11 5 7 8 F
3 5 11 12 F
7 5 11 12 F
5 11 12 13 F

