%RWF=/scratch/bdw2292/Gau-ModifiedRes/,100GB
%Nosave
%Chk=ModifiedRes-opt-5-11-12-13-161.chk
%Mem=20GB
%Nproc=6
#P opt=(,maxcycle=400) HF/6-31G* MaxDisk=100GB

ModifiedRes Rotatable Bond Optimization on g2-node38.bme.utexas.edu

0 1
 C    1.942346   -1.836736    0.484734
 O    2.643810   -1.785969   -0.532224
 N    0.956519   -0.930207    0.746186
 H    0.567463   -0.908174    1.684736
 C    0.601698    0.150302   -0.191148
 H    0.716235   -0.262095   -1.203905
 C    1.565762    1.342570   -0.015072
 O    1.188935    2.341085    0.600665
 H   -0.955166    1.074393    1.010945
 H   -1.109647    1.340167   -0.741058
 C   -0.855514    0.607702    0.027647
 S   -2.034815   -0.809632   -0.102677
 C   -3.376570   -0.143909    0.704837
 N   -4.325213    0.294708    1.264399
 N    2.796017    1.195297   -0.572873
 H    2.077511   -2.601422    1.265637
 H    3.057381    0.295422   -0.968099
 H    3.458548    1.954301   -0.487028

5 11 12 13 F
3 5 11 12 F
7 5 11 12 F
11 5 7 15 F
3 5 7 15 F
3 5 7 8 F
11 5 7 8 F

