%RWF=/scratch/bdw2292/Gau-ModifiedRes/,100GB
%Nosave
%Chk=ModifiedRes-opt-11-5-7-15-333.chk
%Mem=20GB
%Nproc=6
#P opt=(,maxcycle=400) HF/6-31G* MaxDisk=100GB

ModifiedRes Rotatable Bond Optimization on g2-node38.bme.utexas.edu

0 1
 C    1.928983   -1.825670    0.486710
 O    2.446495   -1.970618   -0.623565
 N    0.946579   -0.910773    0.745418
 H    0.567133   -0.887297    1.687409
 C    0.576077    0.163616   -0.200067
 H    0.689310   -0.253119   -1.211364
 C    1.567578    1.352653   -0.039092
 O    2.723560    1.136200    0.315985
 H   -1.013158    1.052324    0.997383
 H   -1.189034    1.308431   -0.740726
 C   -0.892552    0.583295    0.017272
 S   -2.029283   -0.869658   -0.112832
 C   -3.510687   -0.034748   -0.131698
 N   -4.549467    0.534733   -0.145990
 N    1.126986    2.616902   -0.294636
 H    2.199133   -2.452230    1.352062
 H    0.240950    2.824589   -0.735726
 H    1.809100    3.354371   -0.173942

11 5 7 15 F
3 5 7 15 F
3 5 7 8 F
11 5 7 8 F
3 5 11 12 F
7 5 11 12 F
5 11 12 13 F

