%RWF=/scratch/bdw2292/Gau-ModifiedRes/,100GB
%Nosave
%Chk=ModifiedRes-opt-5-11-12-13-311.chk
%Mem=20GB
%Nproc=6
#P opt=(,maxcycle=400) HF/6-31G* MaxDisk=100GB

ModifiedRes Rotatable Bond Optimization on g2-node38.bme.utexas.edu

0 1
 C    1.972767   -1.821396    0.504762
 O    2.695611   -1.758783   -0.496228
 N    0.974258   -0.925635    0.756488
 H    0.579851   -0.905052    1.692263
 C    0.609171    0.146058   -0.187253
 H    0.730013   -0.266316   -1.199934
 C    1.570777    1.338185   -0.013720
 O    1.184149    2.335447    0.599217
 H   -0.957825    1.059725    0.992340
 H   -1.098357    1.313938   -0.763968
 C   -0.861021    0.584162    0.012881
 S   -2.070123   -0.805013   -0.118696
 C   -1.564358   -1.529753   -1.573817
 N   -1.215701   -1.997628   -2.605502
 N    2.805141    1.194625   -0.562524
 H    2.100684   -2.589102    1.284306
 H    3.063117    0.295802   -0.962949
 H    3.468646    1.952434   -0.473568

5 11 12 13 F
3 5 11 12 F
7 5 11 12 F
11 5 7 15 F
3 5 7 15 F
3 5 7 8 F
11 5 7 8 F

