%RWF=/scratch/bdw2292/Gau-ModifiedRes/,100GB
%Nosave
%Chk=ModifiedRes-opt-5-11-12-13-041.chk
%Mem=20GB
%Nproc=6
#P opt=(,maxcycle=400) HF/6-31G* MaxDisk=100GB

ModifiedRes Rotatable Bond Optimization on g2-node38.bme.utexas.edu

0 1
 C    2.077174   -1.787051    0.468498
 O    2.762666   -1.707990   -0.559160
 N    1.063333   -0.916532    0.743403
 H    0.697760   -0.910483    1.691154
 C    0.641491    0.141980   -0.188257
 H    0.747094   -0.274559   -1.200557
 C    1.583308    1.353523   -0.027529
 O    1.185739    2.343244    0.591008
 H   -0.902730    1.051485    1.008983
 H   -1.056960    1.292630   -0.760384
 C   -0.833100    0.570903    0.028930
 S   -2.135740   -0.743798   -0.054649
 C   -1.520414   -2.112626    0.754902
 N   -1.084182   -3.036182    1.360909
 N    2.811099    1.237325   -0.597398
 H    2.247754   -2.548076    1.245646
 H    3.088189    0.337785   -0.983181
 H    3.460919    2.007623   -0.515017

5 11 12 13 F
3 5 11 12 F
7 5 11 12 F
11 5 7 15 F
3 5 7 15 F
3 5 7 8 F
11 5 7 8 F

