%RWF=/scratch/bdw2292/Gau-ModifiedRes/,100GB
%Nosave
%Chk=ModifiedRes-opt-3-5-11-12-305.chk
%Mem=20GB
%Nproc=6
#P opt=(,maxcycle=400) HF/6-31G* MaxDisk=100GB

ModifiedRes Rotatable Bond Optimization on g2-node38.bme.utexas.edu

0 1
 C    1.946281   -1.835449    0.494960
 O    2.649566   -1.786791   -0.520647
 N    0.957640   -0.930517    0.751520
 H    0.567374   -0.906350    1.689395
 C    0.600944    0.145849   -0.189538
 H    0.717893   -0.269705   -1.200874
 C    1.561028    1.341828   -0.017122
 O    1.180180    2.341281    0.594832
 H   -0.952650    1.067651    1.009127
 H   -1.112492    1.329884   -0.745069
 C   -0.858125    0.599575    0.025800
 S   -2.036627   -0.817620   -0.101602
 C   -3.506150    0.039014   -0.128236
 N   -4.544444    0.610817   -0.148890
 N    2.792213    1.196157   -0.573372
 H    2.082394   -2.597373    1.278393
 H    3.055457    0.296587   -0.968054
 H    3.452818    1.957164   -0.490324

3 5 11 12 F
7 5 11 12 F
11 5 7 15 F
3 5 7 15 F
3 5 7 8 F
11 5 7 8 F
5 11 12 13 F

