%RWF=/scratch/bdw2292/Gau-ModifiedRes/,100GB
%Nosave
%Chk=ModifiedRes-opt-5-11-12-13-281.chk
%Mem=20GB
%Nproc=6
#P opt=(,maxcycle=400) HF/6-31G* MaxDisk=100GB

ModifiedRes Rotatable Bond Optimization on g2-node38.bme.utexas.edu

0 1
 C    1.952652   -1.828308    0.496598
 O    2.658722   -1.777962   -0.517024
 N    0.961507   -0.926082    0.755005
 H    0.574728   -0.903017    1.694153
 C    0.595849    0.147563   -0.186563
 H    0.706889   -0.265792   -1.200413
 C    1.565169    1.334850   -0.017121
 O    1.188549    2.333784    0.598792
 H   -0.968150    1.071522    1.002177
 H   -1.112620    1.326552   -0.749416
 C   -0.867202    0.595565    0.023718
 S   -2.045925   -0.817614   -0.108160
 C   -2.126822   -0.951088   -1.803191
 N   -2.195585   -1.059344   -2.981564
 N    2.795187    1.184968   -0.573938
 H    2.089326   -2.590197    1.280137
 H    3.048587    0.286142   -0.976927
 H    3.460637    1.941860   -0.491163

5 11 12 13 F
3 5 11 12 F
7 5 11 12 F
11 5 7 15 F
3 5 7 15 F
3 5 7 8 F
11 5 7 8 F

