%RWF=/scratch/bdw2292/Gau-ModifiedRes/,100GB
%Nosave
%Chk=ModifiedRes-opt-3-5-11-12-040.chk
%Mem=20GB
%Nproc=6
#P opt=(,maxcycle=400) HF/6-31G* MaxDisk=100GB

ModifiedRes Rotatable Bond Optimization on g2-node38.bme.utexas.edu

0 1
 C    2.025636   -1.819931    0.492325
 O    2.704942   -1.753657   -0.539072
 N    1.011186   -0.949849    0.772914
 H    0.654881   -0.954659    1.723268
 C    0.591106    0.114669   -0.162953
 H    0.699987   -0.311064   -1.171815
 C    1.539505    1.322830   -0.009209
 O    1.147591    2.319415    0.597896
 H   -1.041635    1.525697   -0.429689
 H   -1.527944   -0.186076   -0.460281
 C   -0.882820    0.546959    0.028991
 S   -1.418975    0.658086    1.794693
 C   -3.093980    0.845525    1.572573
 N   -4.265514    0.975477    1.446207
 N    2.769016    1.195623   -0.572945
 H    2.205821   -2.573246    1.275511
 H    3.039821    0.303102   -0.978180
 H    3.418177    1.967097   -0.496335

3 5 11 12 F
7 5 11 12 F
11 5 7 15 F
3 5 7 15 F
3 5 7 8 F
11 5 7 8 F
5 11 12 13 F

