%RWF=/scratch/bdw2292/Gau-ModifiedRes/,100GB
%Nosave
%Chk=ModifiedRes-sp-3-5-11-12-268.chk
%Mem=20GB
%Nproc=6
#P MP2/6-311++G** SP SCF=(qc,maxcycle=800) Guess=Indo MaxDisk=100GB Pop=NBORead

ModifiedRes Rotatable Bond SP Calculation on g2-node38.bme.utexas.edu

0 1
 C    2.043526   -1.798197    0.610048
 O    2.641944   -1.823837   -0.471466
 N    1.070928   -0.883557    0.890022
 H    0.751585   -0.801731    1.850802
 C    0.591840    0.093491   -0.102531
 H    0.652819   -0.394928   -1.085684
 C    1.504089    1.339423   -0.104550
 O    1.115235    2.383029    0.422386
 H   -1.096045    0.418005    1.256008
 H   -1.033789    1.529392   -0.117762
 C   -0.873397    0.492816    0.190847
 S   -2.029744   -0.591928   -0.752653
 C   -3.491546    0.212101   -0.419591
 N   -4.503205    0.767253   -0.147852
 N    2.711053    1.182228   -0.709594
 H    2.269990   -2.493099    1.433858
 H    2.982604    0.263044   -1.050067
 H    3.342736    1.971432   -0.738176

