%RWF=/scratch/bdw2292/Gau-ModifiedRes/,100GB
%Nosave
%Chk=ModifiedRes-sp-5-11-12-13-041.chk
%Mem=20GB
%Nproc=6
#P MP2/6-311++G** SP SCF=(qc,maxcycle=800) Guess=Indo MaxDisk=100GB Pop=NBORead

ModifiedRes Rotatable Bond SP Calculation on g2-node38.bme.utexas.edu

0 1
 C   -0.652097    2.050595    0.363720
 O   -1.384435    2.280218   -0.606998
 N   -0.252916    0.787951    0.688969
 H    0.243054    0.656744    1.565688
 C   -0.514255   -0.376136   -0.173637
 H   -0.524185   -0.013779   -1.212193
 C   -1.898973   -0.971778    0.153171
 O   -1.969016   -2.057946    0.732293
 H    0.586593   -1.795480    1.017816
 H    0.281131   -2.300872   -0.669006
 C    0.576656   -1.468746   -0.024537
 S    2.281997   -1.002110   -0.573571
 C    2.542645    0.587556   -0.014974
 N    2.713655    1.679084    0.420205
 N   -2.969082   -0.234681   -0.244946
 H   -0.293506    2.837359    1.044774
 H   -2.810413    0.677967   -0.665956
 H   -3.898502   -0.583560   -0.053388

