%RWF=/scratch/bdw2292/Gau-ModifiedRes/,100GB
%Nosave
%Chk=ModifiedRes-opt-11-5-7-15-106.chk
%Mem=20GB
%Nproc=6
#P opt=(,maxcycle=400) HF/6-31G* MaxDisk=100GB

ModifiedRes Rotatable Bond Optimization on g2-node38.bme.utexas.edu

0 1
 C    1.907116   -1.929536    0.514466
 O    2.585078   -1.945561   -0.511691
 N    0.939489   -0.996493    0.755945
 H    0.525734   -0.987759    1.684360
 C    0.616748    0.114362   -0.160683
 H    0.753992   -0.292115   -1.172661
 C    1.567270    1.325385    0.007621
 O    1.601377    2.163961   -0.892230
 H   -0.948733    1.049304    1.028967
 H   -1.060447    1.330743   -0.718506
 C   -0.832397    0.583372    0.047639
 S   -2.033198   -0.811770   -0.110234
 C   -3.481867    0.078041   -0.149527
 N   -4.504539    0.676214   -0.177957
 N    2.322274    1.426018    1.136930
 H    2.035956   -2.666806    1.323163
 H    2.394194    0.681888    1.818317
 H    2.935752    2.228354    1.194283

11 5 7 15 F
3 5 7 15 F
3 5 7 8 F
11 5 7 8 F
3 5 11 12 F
7 5 11 12 F
5 11 12 13 F

