%RWF=/scratch/bdw2292/Gau-ModifiedRes/,100GB
%Nosave
%Chk=ModifiedRes-opt-5-11-12-13-011.chk
%Mem=20GB
%Nproc=6
#P opt=(,maxcycle=400) HF/6-31G* MaxDisk=100GB

ModifiedRes Rotatable Bond Optimization on g2-node38.bme.utexas.edu

0 1
 C    2.085657   -1.779956    0.470323
 O    2.781087   -1.685224   -0.549669
 N    1.067982   -0.913958    0.750519
 H    0.701209   -0.906297    1.697467
 C    0.643354    0.142763   -0.185768
 H    0.750008   -0.275609   -1.197777
 C    1.584486    1.355033   -0.029859
 O    1.184597    2.346015    0.585576
 H   -0.891467    1.052622    1.007691
 H   -1.057421    1.290128   -0.759220
 C   -0.830129    0.568264    0.028928
 S   -2.134204   -0.744933   -0.053672
 C   -1.352515   -2.260079   -0.063465
 N   -0.792580   -3.305956   -0.036942
 N    2.812168    1.239303   -0.599476
 H    2.253834   -2.550330    1.238575
 H    3.090048    0.337566   -0.980037
 H    3.461986    2.009747   -0.519094

5 11 12 13 F
3 5 11 12 F
7 5 11 12 F
11 5 7 15 F
3 5 7 15 F
3 5 7 8 F
11 5 7 8 F

