molecule { 
0 1
Cl   -1.457500    0.878700   -0.049100
Cl    1.486100    0.849400   -0.027200
 C   -0.000800   -0.139500   -0.009700
 H   -0.030700   -0.724500    0.935800
 H    0.003000   -0.863900   -0.849800
}
set {
  geom_maxiter 400
  g_convergence GAU
  dynamic_level 1
}
memory 15GB
set_num_threads(4)
psi4_io.set_default_path("/scratch/bdw2292/Psi4-CH2Cl2")
for _ in range(1):
  try:
    set opt_coordinates both
    optimize('mp2/6-31G*')
    break
  except OptimizationConvergenceError:
    break
  else:
    try:
      set opt_coordinates cartesian
      optimize('mp2/6-31G*')
      break
    except OptimizationConvergenceError:
      pass
clean()
