molecule { 
0 1
 C    1.627753   -0.709450   -1.149090
 N    0.907208    0.369183   -0.599113
 C   -0.403278    0.134393   -0.065094
 C   -0.583523   -0.049057    1.328139
 C    1.416332    1.757792   -0.573486
 C   -1.535926    0.134741   -0.916405
 C   -1.872204   -0.240803    1.846722
 C   -2.989473   -0.247873    1.000098
 C   -2.815851   -0.059053   -0.377906
 H    0.276488   -0.043467    2.001118
 H   -1.415337    0.281570   -1.991461
 C    3.064508   -0.438764   -1.604037
 O    1.143928   -1.836032   -1.233304
 H    1.704912    2.080821   -1.574525
 H    0.650335    2.446237   -0.212195
 H    2.277649    1.835705    0.091387
 H   -2.001267   -0.380482    2.921507
 H   -3.682019   -0.056898   -1.042069
 H    3.083536    0.250344   -2.448397
 H    3.668204   -0.035928   -0.790477
 H   -3.989744   -0.397894    1.411514
 H    3.524450   -1.373788   -1.926659
}
set optking { 
  frozen_dihedral = ("
    1 2 3 4
    12 1 2 3
  ")
}
set {
  geom_maxiter 400
  g_convergence GAU_LOOSE
  dynamic_level 1
}
memory 8.166666666666666GB
set_num_threads(2)
psi4_io.set_default_path("/scratch/bdw2292/Psi4-3_24_Index_0-farH_in17")
for _ in range(1):
  try:
    set opt_coordinates both
    optimize('wb97x-d/6-311G')
    break
  except OptimizationConvergenceError:
    break
  else:
    try:
      set opt_coordinates cartesian
      optimize('wb97x-d/6-311G')
      break
    except OptimizationConvergenceError:
      pass
clean()
