molecule { 
0 1
 C    2.035725    0.064772    0.036621
 N    0.866320    0.245138   -0.729003
 C   -0.414079    0.105461   -0.096878
 C   -0.985357   -1.176948    0.096181
 C    0.882121    0.535744   -2.179321
 C   -1.139062    1.254243    0.305007
 C   -2.251018   -1.297223    0.687189
 C   -2.963082   -0.158103    1.087252
 C   -2.403676    1.112418    0.893559
 H   -0.442285   -2.072710   -0.210958
 H   -0.717272    2.250717    0.159539
 C    3.377714    0.334347   -0.650258
 O    1.991165   -0.261562    1.220633
 H   -0.125454    0.485792   -2.596197
 H    1.271417    1.538422   -2.361143
 H    1.496729   -0.190334   -2.713046
 H   -2.683396   -2.289221    0.830074
 H   -2.954697    2.004264    1.197337
 H    3.571731   -0.401667   -1.430478
 H    3.409558    1.336039   -1.079120
 H   -3.948473   -0.259993    1.546068
 H    4.182052    0.261697    0.083204
}
set optking { 
  frozen_dihedral = ("
    1 2 3 4
    12 1 2 3
  ")
}
set {
  geom_maxiter 400
  g_convergence GAU_LOOSE
  dynamic_level 1
}
memory 8.166666666666666GB
set_num_threads(2)
psi4_io.set_default_path("/scratch/bdw2292/Psi4-3_24_Index_0-farH_in17")
for _ in range(1):
  try:
    set opt_coordinates both
    optimize('wb97x-d/6-311G')
    break
  except OptimizationConvergenceError:
    break
  else:
    try:
      set opt_coordinates cartesian
      optimize('wb97x-d/6-311G')
      break
    except OptimizationConvergenceError:
      pass
clean()
