molecule { 
0 1
 C    1.487341   -0.344285   -1.314989
 N    0.988663    0.482032   -0.325543
 C   -0.267376    0.190358    0.300801
 C   -0.342364    0.128391    1.693559
 C    1.789796    1.572749    0.236829
 C   -1.415448   -0.020006   -0.464139
 C   -1.561600   -0.120885    2.318684
 C   -2.708228   -0.329131    1.556741
 C   -2.627524   -0.283440    0.165782
 H    0.551019    0.267422    2.287427
 H   -1.348647    0.001223   -1.539860
 C    2.866716   -0.026625   -1.839365
 O    0.840028   -1.303758   -1.765931
 H    2.279926    2.137981   -0.553281
 H    1.127644    2.250459    0.769153
 H    2.552867    1.213030    0.932661
 H   -1.610251   -0.163255    3.398264
 H   -3.511539   -0.451483   -0.433894
 H    2.874084    0.916023   -2.390965
 H    3.608113    0.045119   -1.042624
 H   -3.653773   -0.530392    2.041007
 H    3.147230   -0.826101   -2.517650
}
memory 8.166666666666666GB
set_num_threads(2)
psi4_io.set_default_path("/scratch/bdw2292/Psi4-3_24_Index_0-farH_in17")
set freeze_core True
E, wfn = energy('wb97x-d/6-311+G*',return_wfn=True)
oeprop(wfn,"WIBERG_LOWDIN_INDICES")
clean()
