molecule { 
0 1
 C    2.033610    0.319961    0.071441
 N    0.876374    0.175023   -0.721796
 C   -0.404873    0.065114   -0.081579
 C   -1.125580   -1.154527   -0.132766
 C    0.902791    0.190439   -2.201878
 C   -0.995187    1.189646    0.548406
 C   -2.396115   -1.241943    0.453922
 C   -2.970020   -0.130008    1.085048
 C   -2.266947    1.081454    1.128023
 H   -0.696244   -2.029439   -0.625450
 H   -0.460115    2.140281    0.588219
 C    3.363538    0.546019   -0.653018
 O    1.982793    0.314761    1.299418
 H   -0.106789    0.124442   -2.610688
 H    1.346255    1.116529   -2.569841
 H    1.474085   -0.657568   -2.582065
 H   -2.940908   -2.186668    0.410892
 H   -2.711221    1.953166    1.611620
 H    3.576101   -0.260103   -1.355136
 H    3.361406    1.499211   -1.182044
 H   -3.960133   -0.205902    1.538703
 H    4.173863    0.571408    0.076831
}
set optking { 
  frozen_dihedral = ("
    1 2 3 4
    12 1 2 3
  ")
}
set {
  geom_maxiter 400
  g_convergence GAU_LOOSE
  dynamic_level 1
}
memory 8.166666666666666GB
set_num_threads(2)
psi4_io.set_default_path("/scratch/bdw2292/Psi4-3_24_Index_0-farH_in17")
for _ in range(1):
  try:
    set opt_coordinates both
    optimize('wb97x-d/6-311G')
    break
  except OptimizationConvergenceError:
    break
  else:
    try:
      set opt_coordinates cartesian
      optimize('wb97x-d/6-311G')
      break
    except OptimizationConvergenceError:
      pass
clean()
