molecule { 
0 1
 C    2.033343    0.571100    0.050844
 N    0.906837    0.103055   -0.675591
 C   -0.391747    0.015747   -0.038849
 C   -1.253276   -1.080694   -0.320339
 C    0.960585   -0.124491   -2.144762
 C   -0.886005    1.063772    0.786103
 C   -2.538772   -1.133807    0.237351
 C   -3.002577   -0.105591    1.066351
 C   -2.173496    0.989944    1.335130
 H   -0.921515   -1.896759   -0.965800
 H   -0.262833    1.932269    1.002647
 C    3.351410    0.742309   -0.712976
 O    1.971639    0.866873    1.243161
 H   -0.039677   -0.124479   -2.580461
 H    1.521299    0.663571   -2.648241
 H    1.427623   -1.086680   -2.359333
 H   -3.180812   -1.988452    0.016347
 H   -2.530113    1.799998    1.973861
 H    3.589875   -0.137890   -1.310471
 H    3.313807    1.622488   -1.355290
 H   -4.004216   -0.156680    1.497465
 H    4.165302    0.885691   -0.000884
}
set optking { 
  frozen_dihedral = ("
    1 2 3 4
    12 1 2 3
  ")
}
set {
  geom_maxiter 400
  g_convergence GAU_LOOSE
  dynamic_level 1
}
memory 8.166666666666666GB
set_num_threads(2)
psi4_io.set_default_path("/scratch/bdw2292/Psi4-3_24_Index_0-farH_in17")
for _ in range(1):
  try:
    set opt_coordinates both
    optimize('wb97x-d/6-311G')
    break
  except OptimizationConvergenceError:
    break
  else:
    try:
      set opt_coordinates cartesian
      optimize('wb97x-d/6-311G')
      break
    except OptimizationConvergenceError:
      pass
clean()
