molecule { 
0 1
 C    1.858169   -0.604301   -0.551251
 N    0.915339    0.408318   -0.537074
 C   -0.372022    0.225439    0.064974
 C   -0.528657   -0.496303    1.252342
 C    1.195914    1.709217   -1.154335
 C   -1.495339    0.797707   -0.540794
 C   -1.790544   -0.625374    1.823336
 C   -2.907326   -0.041619    1.228261
 C   -2.753226    0.670699    0.042595
 H    0.323773   -0.969699    1.708752
 H   -1.393843    1.329408   -1.476790
 C    3.220663   -0.272757   -1.113396
 O    1.624133   -1.739214   -0.102638
 H    1.038136    1.693967   -2.235689
 H    0.539036    2.456176   -0.716218
 H    2.219862    2.017053   -0.957534
 H   -1.897686   -1.186966    2.741296
 H   -3.611366    1.120089   -0.438525
 H    3.172890    0.119239   -2.130064
 H    3.735771    0.462269   -0.491051
 H   -3.884369   -0.146587    1.679161
 H    3.799172   -1.191207   -1.114887
}
memory 8.166666666666666GB
set_num_threads(2)
psi4_io.set_default_path("/scratch/bdw2292/Psi4-3_24_Index_0-farH_in17")
set freeze_core True
E, wfn = energy('wb97x-d/6-311+G*',return_wfn=True)
oeprop(wfn,"WIBERG_LOWDIN_INDICES")
clean()
