molecule { 
0 1
 C    1.797231   -0.648927   -0.618502
 N    0.978953    0.442432   -0.417886
 C   -0.347397    0.246792    0.098036
 C   -0.531422   -0.188048    1.409037
 C    1.390069    1.805775   -0.763111
 C   -1.450958    0.538712   -0.701364
 C   -1.819155   -0.339745    1.913984
 C   -2.925112   -0.041955    1.118974
 C   -2.738888    0.399994   -0.188710
 H    0.331942   -0.423364    2.014077
 H   -1.296795    0.861817   -1.722193
 C    3.213342   -0.364809   -1.056343
 O    1.404428   -1.809374   -0.411813
 H    1.444954    1.958213   -1.844029
 H    0.658224    2.497546   -0.355477
 H    2.359758    2.048337   -0.328281
 H   -1.959635   -0.688861    2.927790
 H   -3.593072    0.625106   -0.812574
 H    3.254925    0.227273   -1.972139
 H    3.761355    0.177570   -0.282933
 H   -3.924635   -0.158209    1.515013
 H    3.701323   -1.318957   -1.228302
}
memory 8.166666666666666GB
set_num_threads(2)
psi4_io.set_default_path("/scratch/bdw2292/Psi4-3_24_Index_0-farH_in17")
set freeze_core True
E, wfn = energy('wb97x-d/6-311+G*',return_wfn=True)
oeprop(wfn,"WIBERG_LOWDIN_INDICES")
clean()
