molecule { 
0 1
 C    1.721420   -0.734174   -0.908590
 N    0.882975    0.372742   -0.658939
 C   -0.418533    0.154366   -0.090818
 C   -0.557997   -0.303888    1.243612
 C    1.298123    1.773412   -0.899798
 C   -1.582740    0.409029   -0.858234
 C   -1.834649   -0.502278    1.787128
 C   -2.982236   -0.249968    1.023385
 C   -2.850731    0.204717   -0.295635
 H    0.327080   -0.508762    1.848755
 H   -1.498719    0.761820   -1.888176
 C    3.139842   -0.449555   -1.409068
 O    1.356620   -1.887080   -0.688197
 H    1.424937    1.953315   -1.968228
 H    0.547215    2.472748   -0.528032
 H    2.234238    1.993894   -0.385465
 H   -1.930148   -0.853274    2.816147
 H   -3.740245    0.406633   -0.895099
 H    3.129676    0.161230   -2.311925
 H    3.731217    0.045637   -0.638748
 H   -3.972968   -0.407164    1.454138
 H    3.632305   -1.392102   -1.651947
}
set optking { 
  frozen_dihedral = ("
    1 2 3 4
    12 1 2 3
  ")
}
set {
  geom_maxiter 400
  g_convergence GAU_LOOSE
  dynamic_level 1
}
memory 8.166666666666666GB
set_num_threads(2)
psi4_io.set_default_path("/scratch/bdw2292/Psi4-3_24_Index_0-farH_in17")
for _ in range(1):
  try:
    set opt_coordinates both
    optimize('wb97x-d/6-311G')
    break
  except OptimizationConvergenceError:
    break
  else:
    try:
      set opt_coordinates cartesian
      optimize('wb97x-d/6-311G')
      break
    except OptimizationConvergenceError:
      pass
clean()
