molecule { 
0 1
 C    1.639671   -0.568976   -0.994664
 N    0.948196    0.492742   -0.453530
 C   -0.316249    0.250102    0.187335
 C   -0.376482    0.130150    1.573772
 C    1.511324    1.841073   -0.355186
 C   -1.477120    0.150600   -0.575084
 C   -1.603376   -0.073126    2.200635
 C   -2.767359   -0.168672    1.440554
 C   -2.701687   -0.061135    0.052342
 H    0.536242    0.186722    2.151375
 H   -1.409107    0.224423   -1.650980
 C    3.009936   -0.273052   -1.553709
 O    1.157193   -1.713438   -1.026742
 H    1.949902    2.152795   -1.302506
 H    0.706857    2.531585   -0.114645
 H    2.274309    1.915544    0.425372
 H   -1.648287   -0.166492    3.277030
 H   -3.601668   -0.146146   -0.541122
 H    2.950746    0.386491   -2.421913
 H    3.659460    0.201754   -0.816742
 H   -3.719362   -0.332992    1.926388
 H    3.449836   -1.215754   -1.863445
}
memory 8.166666666666666GB
set_num_threads(2)
psi4_io.set_default_path("/scratch/bdw2292/Psi4-3_24_Index_0-farH_in17")
set freeze_core True
E, wfn = energy('wb97x-d/6-311+G*',return_wfn=True)
oeprop(wfn,"WIBERG_LOWDIN_INDICES")
clean()
