molecule { 
0 1
 C    1.999703   -0.149907   -0.029591
 N    0.857936    0.030319   -0.780361
 C   -0.420151    0.024528   -0.120847
 C   -1.044289   -1.183053    0.181897
 C    0.875854    0.400284   -2.196533
 C   -1.047492    1.231401    0.179699
 C   -2.297243   -1.182021    0.788462
 C   -2.930751    0.024061    1.084677
 C   -2.304509    1.230787    0.779645
 H   -0.536887   -2.109765   -0.044939
 H   -0.544422    2.162148   -0.045540
 C    3.319758   -0.023527   -0.751020
 O    1.946044   -0.406495    1.184566
 H   -0.077005    0.117216   -2.639641
 H    1.018810    1.475869   -2.341644
 H    1.663759   -0.131152   -2.727741
 H   -2.776723   -2.120223    1.031848
 H   -2.787959    2.168831    1.015768
 H    3.453756   -0.823678   -1.481818
 H    3.408474    0.929166   -1.275272
 H   -3.904308    0.023102    1.555374
 H    4.107722   -0.097337   -0.008169
}
memory 8.166666666666666GB
set_num_threads(2)
psi4_io.set_default_path("/scratch/bdw2292/Psi4-3_24_Index_0-farH_in17")
set freeze_core True
E, wfn = energy('wb97x-d/6-311+G*',return_wfn=True)
oeprop(wfn,"WIBERG_LOWDIN_INDICES")
clean()
