molecule { 
0 1
 H    1.187625    1.433909   -0.625304
 N    0.930072    0.439317   -0.519763
 C   -0.400323    0.378950   -0.226045
 C   -1.188706   -0.877035   -0.299986
 C    2.021993   -0.252605    0.003259
 C   -1.104267    1.550919   -0.102494
 C   -2.484866    1.754085    0.253582
 N   -1.495534    3.757873    0.145171
 C   -0.493148    2.878900   -0.151081
 C   -2.677372    3.079051    0.396437
 C   -1.386420   -1.701607    0.803262
 C   -1.934229   -1.105136   -1.452196
 C   -2.234495   -2.791965    0.719634
 C   -2.774951   -2.200034   -1.536533
 C   -2.920281   -3.051474   -0.454435
 C    1.939109   -1.475975    0.663635
 C    3.286220    0.269720   -0.284377
 C    3.089755   -2.112727    1.093473
 C    4.427761   -0.373839    0.145541
 C    4.336443   -1.567708    0.844319
 H   -1.376710    4.755910    0.191974
 O    0.670353    3.181713   -0.415015
 H   -0.899204   -1.473027    1.740752
 H   -1.826869   -0.434574   -2.291962
 H   -2.371646   -3.430749    1.579879
 H   -3.332339   -2.377892   -2.444293
 H   -3.581869   -3.902487   -0.518598
 H    0.982913   -1.936627    0.839337
 H    3.356569    1.203725   -0.822738
 H    3.006062   -3.052084    1.620445
 H    5.395564    0.053107   -0.072176
 H   -3.210381    0.976377    0.385402
 H   -3.562778    3.618884    0.671640
 H    5.229344   -2.071894    1.181314
}
memory 20GB
set_num_threads(5)
psi4_io.set_default_path("/scratch/liuchw/Psi4-1_7_Index_0-farH_in17")
set freeze_core True
E, wfn = energy('wb97x-d/6-311+G*',return_wfn=True)
oeprop(wfn,"WIBERG_LOWDIN_INDICES")
clean()
