molecule { 
0 1
 H    0.621566   -1.973811    0.388213
 N    0.648679   -0.994085    0.659335
 C   -0.554201   -0.386482    0.377572
 C   -1.454126   -1.158009   -0.516742
 C    1.919748   -0.454314    0.429814
 C   -0.976147    0.785740    0.925079
 C   -2.255241    1.423110    0.713735
 N   -1.182511    2.564307    2.306466
 C   -0.299517    1.555906    1.989410
 C   -2.333490    2.475649    1.547029
 C   -2.230346   -2.199674   -0.022847
 C   -1.487865   -0.861140   -1.874315
 C   -3.038762   -2.928908   -0.876845
 C   -2.297954   -1.592542   -2.724665
 C   -3.073331   -2.626799   -2.227874
 C    2.136285    0.880594    0.105200
 C    3.007157   -1.325829    0.476722
 C    3.422169    1.335843   -0.119908
 C    4.287553   -0.861367    0.253662
 C    4.502866    0.475530   -0.037774
 H   -1.005084    3.255454    3.015538
 O    0.769963    1.375635    2.539058
 H   -2.202631   -2.427410    1.032907
 H   -0.881491   -0.052868   -2.256730
 H   -3.643326   -3.734297   -0.486728
 H   -2.322293   -1.355242   -3.777972
 H   -3.704448   -3.196776   -2.893370
 H    1.304214    1.557217    0.004642
 H    2.841420   -2.370194    0.704002
 H    3.578056    2.375634   -0.366826
 H    5.120357   -1.547640    0.302113
 H   -2.991806    1.101892    0.004541
 H   -3.126406    3.187556    1.678523
 H    5.504336    0.840316   -0.208904
}
memory 20GB
set_num_threads(5)
psi4_io.set_default_path("/scratch/liuchw/Psi4-1_7_Index_0-farH_in17")
set freeze_core True
E, wfn = energy('wb97x-d/6-311+G*',return_wfn=True)
oeprop(wfn,"WIBERG_LOWDIN_INDICES")
clean()
