molecule { 
0 1
 H    0.885196   -0.487225   -1.766168
 N    0.783966   -0.587787   -0.762441
 C   -0.475503   -0.160858   -0.342393
 C   -1.551623   -1.136738   -0.655077
 C    1.970018   -0.288377   -0.087658
 C   -0.779542    1.005877    0.280847
 C   -2.081939    1.404326    0.766724
 N   -0.714026    3.159047    0.978452
 C    0.092340    2.194281    0.421816
 C   -1.994667    2.679931    1.181621
 C   -1.723454   -2.250748    0.158158
 C   -2.350728   -0.982061   -1.781095
 C   -2.703265   -3.181558   -0.136570
 C   -3.326145   -1.918199   -2.076209
 C   -3.505423   -3.017263   -1.253500
 C    2.002486   -0.050273    1.284861
 C    3.175366   -0.489185   -0.758764
 C    3.210598    0.073804    1.941585
 C    4.379788   -0.360836   -0.096647
 C    4.404906   -0.070860    1.256716
 H   -0.399315    4.090727    1.191459
 O    1.242368    2.371975    0.070374
 H   -1.090923   -2.377286    1.024266
 H   -2.213253   -0.119711   -2.417505
 H   -2.838155   -4.039910    0.504905
 H   -3.945699   -1.790282   -2.951610
 H   -4.267889   -3.746465   -1.484013
 H    1.079450    0.040826    1.837473
 H    3.161530   -0.716940   -1.816306
 H    3.217838    0.279704    3.002163
 H    5.303855   -0.497953   -0.639222
 H   -2.942723    0.766936    0.802080
 H   -2.748510    3.313800    1.609043
 H    5.346474    0.032283    1.774693
}
memory 20GB
set_num_threads(5)
psi4_io.set_default_path("/scratch/liuchw/Psi4-1_7_Index_0-farH_in17")
set freeze_core True
E, wfn = energy('wb97x-d/6-311+G*',return_wfn=True)
oeprop(wfn,"WIBERG_LOWDIN_INDICES")
clean()
