molecule { 
0 1
 H    0.527813   -1.919398    1.180110
 N    0.575103   -0.909625    1.071978
 C   -0.658056   -0.385405    0.678829
 C   -1.380401   -1.124796   -0.385472
 C    1.792108   -0.507653    0.525986
 C   -1.105022    0.806227    1.138700
 C   -2.373800    1.442458    0.868585
 N   -1.301848    2.682470    2.392746
 C   -0.421393    1.650506    2.151368
 C   -2.448317    2.545662    1.633315
 C   -2.088003   -2.288873   -0.105529
 C   -1.284471   -0.682916   -1.700295
 C   -2.708691   -2.990766   -1.123372
 C   -1.901811   -1.391012   -2.715759
 C   -2.615483   -2.543010   -2.430321
 C    1.934850    0.685440   -0.176892
 C    2.916892   -1.300346    0.749392
 C    3.173667    1.061886   -0.658828
 C    4.150477   -0.915360    0.264593
 C    4.286430    0.267139   -0.443637
 H   -1.122448    3.426829    3.045388
 O    0.657508    1.518924    2.686195
 H   -2.162235   -2.632776    0.916580
 H   -0.727436    0.215061   -1.922031
 H   -3.265184   -3.888069   -0.896007
 H   -1.823659   -1.041877   -3.734782
 H   -3.098202   -3.091350   -3.225533
 H    1.075299    1.316965   -0.341927
 H    2.813755   -2.222051    1.305008
 H    3.270372    1.988365   -1.206236
 H    5.012483   -1.541187    0.444696
 H   -3.109236    1.076514    0.180417
 H   -3.240045    3.266697    1.714665
 H    5.252380    0.568322   -0.819872
}
memory 20GB
set_num_threads(5)
psi4_io.set_default_path("/scratch/liuchw/Psi4-1_7_Index_0-farH_in17")
set freeze_core True
E, wfn = energy('wb97x-d/6-311+G*',return_wfn=True)
oeprop(wfn,"WIBERG_LOWDIN_INDICES")
clean()
