molecule { 
0 1
 H    1.076364    1.011640   -1.213918
 N    0.854497    0.151218   -0.706454
 C   -0.446681    0.206093   -0.231053
 C   -1.321748   -0.988347   -0.365828
 C    1.992729   -0.298004   -0.042527
 C   -1.034452    1.418479   -0.014143
 C   -2.338591    1.713851    0.524961
 N   -1.255276    3.652961    0.245691
 C   -0.354664    2.714206   -0.181589
 C   -2.422498    3.047805    0.680395
 C   -1.365468   -2.073190    0.499246
 C   -2.188463   -0.969753   -1.458660
 C   -2.235759   -3.124803    0.266506
 C   -3.050477   -2.023711   -1.693611
 C   -3.075944   -3.107554   -0.831912
 C    1.951264   -1.028723    1.140675
 C    3.236215    0.026385   -0.588524
 C    3.122268   -1.458031    1.737816
 C    4.399535   -0.405408    0.013626
 C    4.350384   -1.159343    1.175952
 H   -1.073971    4.642565    0.258823
 O    0.748280    2.951485   -0.653876
 H   -0.738146   -2.102150    1.375876
 H   -2.172780   -0.124084   -2.130245
 H   -2.258168   -3.959250    0.951976
 H   -3.708502   -1.995438   -2.549574
 H   -3.751976   -3.929932   -1.012570
 H    1.004326   -1.229618    1.613039
 H    3.276825    0.623522   -1.487650
 H    3.071123   -2.022343    2.657832
 H    5.353257   -0.145841   -0.421886
 H   -3.080402    0.982421    0.775926
 H   -3.221477    3.641781    1.081416
 H    5.261770   -1.495888    1.646323
}
memory 20GB
set_num_threads(5)
psi4_io.set_default_path("/scratch/liuchw/Psi4-1_7_Index_0-farH_in17")
set freeze_core True
E, wfn = energy('wb97x-d/6-311+G*',return_wfn=True)
oeprop(wfn,"WIBERG_LOWDIN_INDICES")
clean()
