%RWF=/scratch/liuchw/Gau-farH_in17/,12672GB
%Nosave
%Chk=farH_in17-dma_temp.chk
%Mem=208GB
%Nproc=51
#P MP2/6-311G** Sp Density=MP2 MaxDisk=12672GB 

farH_in17 Gaussian SP Calculation on node165.bme.utexas.edu

1 1
 N   -0.435012   -0.780801   -2.023529
 N   -1.859059    2.922609   -0.435726
 N    3.927340   -1.277377    1.533334
 N    7.515494   -0.417107    2.214966
 C   -2.077192    0.724098   -1.044697
 C   -3.339557    1.180404   -0.471004
 C   -1.754313   -0.490882   -1.554700
 C   -1.143039    1.904659   -1.039634
 C   -3.156133    2.529480   -0.102039
 C   -4.552125    0.551431   -0.200865
 C   -2.763001   -1.561050   -1.694490
 C   -4.161508    3.273929    0.499555
 C   -5.570552    1.296209    0.402780
 C   -2.887074   -2.567659   -0.728624
 C   -3.662138   -1.515261   -2.767789
 C    0.626494   -0.827906   -1.121977
 C   -3.903947   -3.514929   -0.835419
 C   -4.671574   -2.470097   -2.874887
 C    0.437840   -0.992513    0.256470
 C    1.942466   -0.783418   -1.606639
 C   -4.799821   -3.464651   -1.904452
 C    1.529058   -1.124346    1.108724
 C    3.033895   -0.907491   -0.760640
 C    2.837594   -1.036353    0.621805
 C    5.158281   -0.767848    1.333352
 C    3.640875   -2.170306    2.665863
 C    6.267046   -1.129610    2.341726
 C    7.581538    0.985399    2.564961
 C    8.425321   -0.833740    1.153101
 C    7.350505    1.954027    1.387374
 C    8.868508    0.358859    0.300611
 C    7.802150    2.173662   -1.039668
 C   -5.379013    2.641453    0.749185
 C   -6.855214    0.593283    0.661213
 C   -9.039599    0.765825    1.495287
 O   -0.004923    1.998097   -1.492891
 O    5.419217   -0.022968    0.356169
 O   -7.773447    1.404735    1.233017
 O   -7.064269   -0.579535    0.390855
 N    7.686206    1.245840    0.111795
 H    7.908236    1.589419   -1.953697
 H   -4.741103   -0.485890   -0.455392
 H   -0.190845   -0.289928   -2.881895
 H   -1.491156    3.864364   -0.363783
 H   -4.009861    4.314877    0.773922
 H   -2.191703   -2.606631    0.106498
 H   -3.576884   -0.720370   -3.505936
 H   -4.005182   -4.286967   -0.077077
 H   -5.368678   -2.428501   -3.707664
 H   -0.563974   -1.020540    0.673420
 H    2.110764   -0.677518   -2.676277
 H   -5.597751   -4.198188   -1.979808
 H    1.337093   -1.224625    2.172475
 H    4.030314   -0.881427   -1.178191
 H    4.550423   -2.634471    3.036902
 H    6.484740   -2.202172    2.269825
 H    8.568335    1.185588    3.000119
 H    7.917433   -1.557124    0.506573
 H    7.985178    2.841869    1.467683
 H    9.223956    0.033433   -0.679977
 H    6.895879    2.777647   -1.090337
 H    2.971405   -2.955570    2.317206
 H    5.897521   -0.965263    3.360338
 H    6.851939    1.190323    3.352979
 H    9.321656   -1.325385    1.556502
 H    6.307351    2.260997    1.294652
 H    9.658157    0.949538    0.773668
 H    8.673694    2.814253   -0.899301
 H    3.164025   -1.627318    3.486080
 H   -6.189906    3.192749    1.213639
 H   -8.905496   -0.072828    2.179091
 H   -9.657446    1.539498    1.945245
 H   -9.481028    0.406320    0.565381
 H    6.836686    0.620512   -0.004094



