molecule { 
1 1
 N   -2.067800   -0.696200    0.963700
 N   -5.462300   -1.602900    3.289300
 N    3.143600   -0.079700   -1.318400
 N    6.779800   -0.976400   -0.699300
 C   -4.406000   -0.531700    1.538600
 C   -5.844500   -0.191400    1.515900
 C   -3.344400   -0.170000    0.775700
 C   -4.218400   -1.480600    2.703200
 C   -6.417300   -0.862600    2.604600
 C   -6.656000    0.566700    0.686300
 C   -3.574400    0.759600   -0.347000
 C   -7.761000   -0.790900    2.916400
 C   -8.031000    0.664300    0.975400
 C   -3.699700    2.139400   -0.116200
 C   -3.691500    0.268800   -1.654900
 C   -0.798700   -0.461700    0.408600
 C   -3.945100    3.010800   -1.178700
 C   -3.936300    1.143700   -2.714600
 C    0.175900   -1.455600    0.573900
 C   -0.435200    0.645900   -0.349200
 C   -4.065300    2.511800   -2.475400
 C    1.461500   -1.339200    0.021200
 C    0.850600    0.767300   -0.906100
 C    1.830800   -0.220300   -0.728700
 C    4.273600   -0.723800   -0.772300
 C    3.256100    0.841600   -2.453100
 C    5.632700   -0.415400   -1.457400
 C    8.005700   -1.030300   -1.507100
 C    7.010800   -0.264600    0.572200
 C    9.157000   -1.719900   -0.742800
 C    8.115800   -0.946800    1.401700
 C   10.512400   -1.665900    1.362100
 C   -8.573700   -0.012100    2.090100
 C   -8.873300    1.496600    0.070000
 C  -11.048100    2.221600   -0.376000
 O   -3.187000   -2.028200    3.051100
 O    4.248400   -1.467100    0.213100
 O  -10.174400    1.448600    0.449000
 O   -8.427900    2.125000   -0.876800
 N    9.402500   -1.024200    0.588100
 H   10.228600   -2.695100    1.597500
 H   -6.261300    1.078000   -0.185200
 H   -2.037400   -1.387000    1.722200
 H   -5.631600   -2.186800    4.094400
 H   -8.179000   -1.319600    3.766200
 H   -3.609700    2.536100    0.892500
 H   -3.591500   -0.796700   -1.848800
 H   -4.052600    4.076700   -0.994600
 H   -4.033300    0.757000   -3.725800
 H   -0.061300   -2.359000    1.133800
 H   -1.120700    1.468400   -0.508800
 H   -4.267600    3.189900   -3.301000
 H    2.134700   -2.177400    0.171200
 H    1.053800    1.682700   -1.453900
 H    2.362000    0.793400   -3.083100
 H    5.593600   -0.894100   -2.443000
 H    7.824600   -1.602200   -2.424800
 H    7.292000    0.778600    0.377000
 H    8.921200   -2.768200   -0.526500
 H    8.339200   -0.364000    2.301100
 H   11.414000   -1.640400    0.744700
 H    3.406300    1.856200   -2.071600
 H    5.761300    0.665700   -1.577200
 H    8.315000   -0.020100   -1.804800
 H    6.108300   -0.240100    1.190500
 H   10.088900   -1.660600   -1.314300
 H    7.839000   -1.970000    1.680300
 H   10.669200   -1.084800    2.274500
 H    4.095600    0.583600   -3.101400
 H   -9.635300    0.058800    2.318400
 H  -12.064400    2.113300    0.012800
 H  -11.029700    1.851700   -1.405900
 H  -10.773500    3.280400   -0.338300
 H    9.683300   -0.058700    0.379900
}
set {
  geom_maxiter 400
  g_convergence GAU
  dynamic_level 1
}
set optking { 
  frozen_dihedral = ("
    16 1 7 5
, 7 1 16 19
, 25 3 24 22
, 28 4 27 25
, 6 5 7 1
, 1 7 11 14
, 3 25 27 4
, 13 34 38 35
  ")
}
memory 49GB
set_num_threads(12)
psi4_io.set_default_path("/scratch/bdw2292/Psi4-farH_in17")
for _ in range(1):
  try:
    set opt_coordinates both
    optimize('mp2/6-31G*')
    break
  except:
    break
  else:
    try:
      set opt_coordinates cartesian
      optimize('mp2/6-31G*')
      break
    except:
      pass
clean()
