molecule { 
1 1
N 1.222140858082 1.192158561459 1.178331490527
N 4.167388667351 -1.248676273140 2.956171436156
N -3.911617145246 -1.003587244425 0.213998925645
N -7.538697781257 -0.085105392812 0.050314743846
C 3.274053977909 -0.069879698420 1.211261009112
C 4.596191145348 -0.551363183765 0.823639514286
C 2.356176129779 0.682968997227 0.532301325602
C 3.074425284938 -0.469714162406 2.634311837729
C 5.100019072943 -1.284444658101 1.921106256583
C 5.383264283969 -0.421474489764 -0.318746010349
C 2.463060217810 1.017272894084 -0.897955778013
C 6.348174096874 -1.893569038940 1.902215222481
C 6.644094580945 -1.025839694263 -0.344444866466
C 2.642095044454 0.021450152718 -1.869090853296
C 2.301500847397 2.351594849989 -1.294682247029
C -0.044317054886 0.619801844586 0.894439316089
C 2.712921778899 0.364995532601 -3.216714636906
C 2.379724956752 2.690172748816 -2.643832371227
C -0.217532651927 -0.491702017125 0.067108170501
C -1.173849291718 1.207806112187 1.476342588192
C 2.583284579501 1.699810617408 -3.606306818380
C -1.492326713235 -1.003847894493 -0.163510795361
C -2.443166545814 0.686559921076 1.270933835686
C -2.621850827254 -0.400458439100 0.400616177061
C -5.050947053381 -0.252815831313 0.209786387033
C -3.926268527202 -2.428330880278 -0.119526289566
C -6.394763932795 -0.982359724321 0.008137419575
C -7.816837139114 0.517683619787 1.350260326215
C -7.576237216589 0.920417306769 -1.012234012445
C -9.323115878629 0.829640331032 1.385567233583
C -8.870088314614 1.729823217905 -0.834457105705
C -11.262978042429 1.304852055595 -0.124819274011
C 7.120413152058 -1.763018624366 0.750179799737
C 7.440067156501 -0.863856789222 -1.588283417881
C 9.495253036016 -1.302072493427 -2.653638447358
O 2.148733947397 -0.187914731051 3.404700654260
O -5.076874895405 0.971777000349 0.399290552842
O 8.668399107622 -1.423047941353 -1.479199458388
O 7.041943462866 -0.289030887454 -2.590515058057
N -9.826811229121 0.888455047988 -0.033835833128
H -11.418212269759 1.865095603234 -1.045144173373
H 5.061321053400 0.145493175936 -1.185130407718
H 1.364994854950 1.167390411538 2.194692885112
H 4.314510418508 -1.597090639368 3.896793987548
H 6.715707363168 -2.454517759926 2.757990653988
H 2.755385854966 -1.015942232170 -1.559934460599
H 2.131277622270 3.111831645313 -0.537031586057
H 2.862067555173 -0.408961825555 -3.965087955892
H 2.276966247855 3.729145542518 -2.946408705779
H 0.641546091907 -0.993384899578 -0.363762448719
H -1.043297575094 2.069141924407 2.127205750565
H 2.646123957098 1.967294674016 -4.657843734047
H -1.581865191130 -1.861837029376 -0.820377111734
H -3.293246305138 1.152304291126 1.748900502603
H -3.343518404624 -2.974509437430 0.624839632211
H -6.543562474663 -1.745161015904 0.780425275861
H -7.216104728965 1.417063382442 1.530193163014
H -7.592672572044 0.391923932082 -1.972085762526
H -9.543558444062 1.795510341325 1.845349326269
H -9.335737746599 1.975293837694 -1.790363567137
H -11.896537688142 0.419577007817 -0.092741502257
H -3.521404018996 -2.612989543136 -1.117012142284
H -6.418057221749 -1.496261926059 -0.960614726010
H -7.576075897314 -0.198973013811 2.139214010562
H -6.715923274407 1.596964056265 -0.997376986498
H -9.904080952390 0.053385740436 1.889879396770
H -8.720205773500 2.653478379874 -0.270533018410
H -11.492726201491 1.954615003911 0.718708441800
H -4.940517488533 -2.816806237172 -0.089850378994
H 8.100637887578 -2.224806544625 0.698048271158
H 9.969718858139 -0.319411418428 -2.670915410531
H 10.250315374010 -2.079258011629 -2.553194733831
H 8.901871553865 -1.443103263077 -3.555712712677
H -9.697945205178 -0.070630415493 -0.390744570169
}
memory 49GB
set_num_threads(12)
psi4_io.set_default_path("/scratch/bdw2292/Psi4-farH_in17")
set maxiter 500
set freeze_core True
set PROPERTIES_ORIGIN ["COM"]
set cubeprop_tasks ['esp']
set basis MINIX 
E, wfn = properties('hf',properties=['dipole'],return_wfn=True)
cubeprop(wfn)
fchk(wfn, "farH_in17-esp_frag.fchk")
oeprop(wfn,"WIBERG_LOWDIN_INDICES","MULLIKEN_CHARGES")
clean()
