molecule { 
0 1
 N   -1.639584   -0.389519    0.328597
 C   -0.392228   -0.418537   -0.201215
 C    0.739813   -0.492377    0.817618
 N    1.593103    0.679558    0.654574
 O   -0.190874   -0.476090   -1.392671
 H    1.264350   -1.445274    0.644842
 H    0.347181   -0.495119    1.839035
 H   -2.405936   -0.262366   -0.315549
 H   -1.785310   -0.075932    1.272480
 H    2.520853    0.494782    1.022473
 H    1.704034    0.862576   -0.339806
}
memory 20GB
set_num_threads(5)
psi4_io.set_default_path("/scratch/liuchw/Psi4-25_27_Index_0-farH_in17")
set freeze_core True
E, wfn = energy('wb97x-d/6-311+G*',return_wfn=True)
oeprop(wfn,"WIBERG_LOWDIN_INDICES")
clean()
