molecule { 
0 1
C -0.819055689664 -0.213333199835 -0.05557721147
N 0.385470195729 -0.449872300041 0.66865615513
C 1.539263833596 0.219103421829 0.313535118328
C 2.766298215378 0.009549844494 1.208936809397
C 0.289526074485 -1.205837311119 1.914157369429
O 1.613468809092 0.9419496739 -0.681740428452
C -1.994026225689 0.095043875242 0.63734667668
C -3.20955271178 0.179333004463 -1.450426182868
C -3.185958157823 0.283252207044 -0.060698543074
C -2.032627911962 -0.119978048426 -2.138248151765
C -0.840012650008 -0.325285453172 -1.449664651163
H 1.197123370741 -1.787582612736 2.075515364094
H -0.545598925483 -1.900865028972 1.823805115802
H 0.122606463197 -0.565836389265 2.78852254234
N 3.913403402604 0.812630094461 0.819819588169
H 3.055397741859 -1.048217498709 1.183353732273
H 2.516920027608 0.234421565489 2.25158593341
H -1.976557127159 0.2043613468 1.718400408782
H -4.094893744299 0.522085348273 0.485570490718
H -2.04284506166 -0.205300137277 -3.221805832739
H 0.073281592303 -0.56238130639 -1.982445296329
H 4.071152817302 0.663632136475 -0.176564822231
H -4.137727820838 0.331797366601 -1.994470869511
H 3.644936416093 1.794329203264 0.879631891426
}
memory 20GB
set_num_threads(5)
psi4_io.set_default_path("/scratch/liuchw/Psi4-3_25_Index_0_GrowFragment_3-farH_in17")
set maxiter 500
set freeze_core True
set PROPERTIES_ORIGIN ["COM"]
set cubeprop_tasks ['esp']
set basis aug-cc-pVTZ 
E, wfn = properties('mp2',properties=['dipole','GRID_ESP','WIBERG_LOWDIN_INDICES','MULLIKEN_CHARGES'],return_wfn=True)
cubeprop(wfn)
fchk(wfn, "3_25_Index_0_GrowFragment_3-esp.fchk")
clean()
