molecule { 
0 1
 O    0.005800    0.397800    0.000000
 H    0.760500   -0.210000    0.000000
 H   -0.766300   -0.187700    0.000000
}
set {
  geom_maxiter 400
  g_convergence GAU_LOOSE
  dynamic_level 1
}
geometric_keywords = {
 'coordsys' : 'tric',
 'convergence_cmax' : 1e0,
 'convergence_set' : 'GAU_LOOSE',
 'convergence_energy' : 1e-4,
}
memory 209GB
set_num_threads(51)
psi4_io.set_default_path("/scratch/liuchw/Psi4-water_3D")
basis {
assign 6-31G*
}
opt_finished = False
if not opt_finished:
    try:
        ener, opt_hist = optimize('mp2',engine='geometric',optimizer_keywords=geometric_keywords, return_history=True)
        opt_finished = len(opt_hist['energy']) < 400
    except Exception as e:
        core.print_out('Exception: %s'%(e))
if not opt_finished:
    try:
        optimize('mp2')
    except:
        set opt_coordinates both
        optimize('mp2')
    opt_finished = True
clean()
assert opt_finished

