molecule { 
0 1
CL -0.838973208280 1.458857460840 -0.042476585352
CL 1.682208821950 -0.001232435812 -0.068257426464
CL -0.842946912786 -1.454003938775 -0.093933286294
C -0.000871033451 -0.008250057695 0.466083238768
H 0.000354091941 -0.027410054840 1.551838544578
}
memory 15GB
set_num_threads(4)
psi4_io.set_default_path("/scratch/bdw2292/Psi4-CHCl3")
set maxiter 500
set freeze_core True
set PROPERTIES_ORIGIN ["COM"]
set cubeprop_tasks ['esp']
E, wfn = properties('mp2/aug-cc-pVTZ',properties=['dipole'],return_wfn=True)
cubeprop(wfn)
fchk(wfn, "CHCl3-esp.fchk")
oeprop(wfn,"GRID_ESP","WIBERG_LOWDIN_INDICES","MULLIKEN_CHARGES")
clean()
