%NProcShared=1
%Mem=16GB
%Chk=m_opt.chk
#P MP2/6-31G* Opt=(MaxCycles=100) NoSymm

m geometry optimisation

0 1
 C      -0.00581388     -0.00596854     -0.00904507
 H       0.18472234      0.04554114      1.07907577
 H      -0.30656771      1.00549846     -0.38269485
 H      -0.80814002     -0.74316204     -0.19354720
 H       0.93579927     -0.30190902     -0.49378865

