%NProcShared=1
%Mem=16GB
%Chk=methane_opt.chk
#P MP2/6-31G* Opt=(MaxCycles=100) NoSymm

methane geometry optimisation

0 1
 C       0.01750989     -0.01809883     -0.00404528
 H      -0.29531638      0.12507748      1.05116845
 H       0.07601099      0.99624960     -0.46910774
 H       1.00428168     -0.53424629     -0.07821876
 H      -0.80248618     -0.56898197     -0.49979667

