%NProcShared=1
%Mem=16GB
%Chk=methane_opt.chk
#P MP2/6-31G* Opt=(MaxCycles=100) NoSymm

methane geometry optimisation

0 1
 C       0.00061577     -0.00612648     -0.01916635
 H      -0.66629282     -0.83476391     -0.31854083
 H      -0.43605600      0.97990050     -0.31461095
 H       0.08514068     -0.01754723      1.08798222
 H       1.01659238     -0.12146288     -0.43566408

