%NProcShared=1
%Mem=16GB
%Chk=methane_opt.chk
#P MP2/6-31G* Opt=(MaxCycles=100) NoSymm

methane geometry optimisation

0 1
 C       0.01250438     -0.02504372      0.00725608
 H      -0.71143295     -0.76745239     -0.36813336
 H      -0.32800937      0.95569549     -0.36735266
 H      -0.00531609      0.03778674      1.11256923
 H       1.03225403     -0.20098611     -0.38433929

