molecule { 
0 1
 C    0.898975   -0.751323   -0.573618
 C   -0.127574   -0.100087    0.105267
 C   -1.391326   -0.830742    0.352538
 O   -2.463518   -0.022576    0.378609
 C    0.029973    1.225005    0.500408
 O   -1.484737   -2.024937    0.484297
 C    2.078107   -0.083451   -0.844409
 C    2.238132    1.232160   -0.438597
 H    0.755646   -1.777867   -0.875239
 C    1.216417    1.883191    0.234508
 H   -0.773150    1.724936    1.019529
 H    1.344597    2.908447    0.548688
 H   -3.265025   -0.543718    0.542704
 H    2.873850   -0.587022   -1.372754
 H    3.161368    1.752117   -0.648389
}
memory 20GB
set_num_threads(5)
psi4_io.set_default_path("/scratch/liuchw/Psi4-13_34_Index_0-farH_in17")
set freeze_core True
E, wfn = energy('wb97x-d/6-311+G*',return_wfn=True)
oeprop(wfn,"WIBERG_LOWDIN_INDICES")
clean()
