molecule { 
0 1
 C    0.648054   -0.549335   -0.770561
 C   -0.196327    0.058860    0.153713
 C   -1.489891   -0.554338    0.529200
 O   -2.023392   -1.296908   -0.454675
 C    0.199464    1.231716    0.791886
 O   -2.044389   -0.399767    1.588025
 C    1.868422    0.028328   -1.068321
 C    2.250936    1.206788   -0.447436
 H    0.341075   -1.466694   -1.248672
 C    1.416393    1.808011    0.481907
 H   -0.461318    1.676920    1.520169
 H    1.719459    2.723092    0.968452
 H   -2.866692   -1.675497   -0.160771
 H    2.525605   -0.442493   -1.784350
 H    3.204336    1.655452   -0.685022
}
memory 20GB
set_num_threads(5)
psi4_io.set_default_path("/scratch/liuchw/Psi4-13_34_Index_0-farH_in17")
set freeze_core True
E, wfn = energy('wb97x-d/6-311+G*',return_wfn=True)
oeprop(wfn,"WIBERG_LOWDIN_INDICES")
clean()
