molecule { 
0 1
 C    0.788664   -0.675725   -0.646349
 C   -0.137777   -0.046198    0.174684
 C   -1.407529   -0.742716    0.537354
 O   -2.376847   -0.501770   -0.354571
 C    0.124602    1.221873    0.676579
 O   -1.570262   -1.437313    1.503692
 C    1.972434   -0.033744   -0.965618
 C    2.233658    1.231825   -0.468117
 H    0.582411   -1.663511   -1.030754
 C    1.310173    1.857845    0.352090
 H   -0.596648    1.705437    1.318434
 H    1.512703    2.844236    0.741973
 H   -3.194368   -0.962099   -0.103123
 H    2.692109   -0.524142   -1.604037
 H    3.158410    1.730134   -0.718695
}
memory 20GB
set_num_threads(5)
psi4_io.set_default_path("/scratch/liuchw/Psi4-13_34_Index_0-farH_in17")
set freeze_core True
E, wfn = energy('wb97x-d/6-311+G*',return_wfn=True)
oeprop(wfn,"WIBERG_LOWDIN_INDICES")
clean()
