molecule { 
0 1
 C    0.708490   -0.607954   -0.709490
 C   -0.174390    0.019100    0.161976
 C   -1.443456   -0.648200    0.555290
 O   -2.218104   -0.926316   -0.503409
 C    0.168094    1.234041    0.745130
 O   -1.777865   -0.889204    1.685009
 C    1.913957   -0.003792   -1.018983
 C    2.241920    1.220382   -0.460203
 H    0.445540   -1.560580   -1.144166
 C    1.368725    1.838511    0.420115
 H   -0.513597    1.699014    1.441208
 H    1.628009    2.789431    0.861162
 H   -3.037949   -1.360410   -0.217625
 H    2.600157   -0.490948   -1.695712
 H    3.182200    1.691059   -0.706757
}
memory 20GB
set_num_threads(5)
psi4_io.set_default_path("/scratch/liuchw/Psi4-13_34_Index_0-farH_in17")
set freeze_core True
E, wfn = energy('wb97x-d/6-311+G*',return_wfn=True)
oeprop(wfn,"WIBERG_LOWDIN_INDICES")
clean()
