molecule { 
0 1
 C    0.859169   -0.728361   -0.595361
 C   -0.115395   -0.096008    0.168105
 C   -1.385864   -0.811475    0.465452
 O   -2.449802   -0.161348   -0.027330
 C    0.075466    1.212238    0.596674
 O   -1.476917   -1.864734    1.038364
 C    2.028421   -0.059037   -0.908790
 C    2.227878    1.237373   -0.463335
 H    0.696964   -1.741810   -0.930378
 C    1.253154    1.870354    0.290334
 H   -0.691573    1.703449    1.176306
 H    1.407534    2.882362    0.634256
 H   -3.265920   -0.645183    0.177842
 H    2.785112   -0.549914   -1.502520
 H    3.143511    1.756227   -0.706075
}
memory 20GB
set_num_threads(5)
psi4_io.set_default_path("/scratch/liuchw/Psi4-13_34_Index_0-farH_in17")
set freeze_core True
E, wfn = energy('wb97x-d/6-311+G*',return_wfn=True)
oeprop(wfn,"WIBERG_LOWDIN_INDICES")
clean()
