%RWF=/scratch/bdw2292/Gau-1_7_Index_0_GrowFragment_0-farH_in17/,42.333333333333336GB
%Nosave
%Chk=1_7_Index_0_GrowFragment_0-opt_1.chk
%Mem=8.166666666666666GB
%Nproc=2
#P opt=(Cartesian,maxcycles=400) MP2/6-31G* MaxDisk=42.333333333333336GB 

1_7_Index_0_GrowFragment_0 Gaussian OPT Calculation on node74.bme.utexas.edu

0 1
 C   -0.798700   -0.461700    0.408600
 N   -2.067800   -0.696200    0.963700
 C   -3.344400   -0.170000    0.775700
 C   -4.406000   -0.531700    1.538600
 H   -2.037400   -1.387000    1.722200
 C   -3.574400    0.759600   -0.347000
 C   -5.844500   -0.191400    1.515900
 N   -5.462300   -1.602900    3.289300
 C   -4.218400   -1.480600    2.703200
 C   -6.417300   -0.862600    2.604600
 C   -3.699700    2.139400   -0.116200
 C   -3.691500    0.268800   -1.654900
 C   -3.945100    3.010800   -1.178700
 C   -3.936300    1.143700   -2.714600
 C   -4.065300    2.511800   -2.475400
 C    0.175900   -1.455600    0.573900
 C   -0.435200    0.645900   -0.349200
 C    1.461500   -1.339200    0.021200
 C    0.850600    0.767300   -0.906100
 C    1.830800   -0.220300   -0.728700
 H   -5.631600   -2.186800    4.094400
 O   -3.187000   -2.028200    3.051100
 H   -3.609700    2.536100    0.892500
 H   -3.591500   -0.796700   -1.848800
 H   -4.052600    4.076700   -0.994600
 H   -4.033300    0.757000   -3.725800
 H   -4.267600    3.189900   -3.301000
 H   -0.061300   -2.359000    1.133800
 H   -1.120700    1.468400   -0.508800
 H    2.134700   -2.177400    0.171200
 H    1.053800    1.682700   -1.453900
 N    3.143600   -0.079700   -1.318400
 H   -6.328300    0.416600    0.836700
 H   -7.415200   -0.813400    2.863000
 H    3.821000   -0.781600   -1.184900
 H    3.360000    0.717900   -1.853400

