molecule { 
0 1
C 1.541487966730 -0.521020246824 -0.140148226537
N 0.370389871710 -0.918893004911 0.536889680748
C -0.832057320215 -0.289012851446 0.536491312183
C -1.785666526923 -0.645118401456 1.472159582904
H 0.445552605881 -1.649926203257 1.261288600961
C -1.126761430217 0.696214610279 -0.521290081431
C -3.157435639782 -0.222665401258 1.623060712855
N -2.674852217260 -1.695640943668 3.257025128421
C -1.505789382311 -1.623125117930 2.525042148310
C -3.661365507457 -0.875950436503 2.705901489910
C -1.641080742789 1.956559288467 -0.190865597124
C -0.908271275492 0.365090154436 -1.865753879918
C -1.929912679517 2.877285823899 -1.197523832092
C -1.204576328784 1.287148695709 -2.865631640754
C -1.713169843525 2.545383077998 -2.535213065472
C 2.408201521507 -1.515927798168 -0.604271042982
C 1.901699264129 0.822898380266 -0.298474421923
C 3.595402920420 -1.177737457902 -1.244036001477
C 3.077257447759 1.155876538649 -0.961338378213
C 3.952654477029 0.164630027747 -1.425663812651
H -2.788374679778 -2.330536534243 4.036108830327
O -0.463993845755 -2.280454672409 2.743828187374
H -1.794911265558 2.211973970471 0.854761473955
H -0.512466868959 -0.615618321622 -2.118020776121
H -2.321553224149 3.857335293567 -0.936197487797
H -1.038842881906 1.024193936832 -3.907368699136
H -1.938740746674 3.264451015912 -3.318623517097
H 2.133656081946 -2.561039470623 -0.478718828906
H 1.259700843837 1.607305333051 0.089963824631
H 4.256891465652 -1.964445300296 -1.602070747372
H 3.341707732483 2.204600871452 -1.085486624004
N 5.107257751617 0.508464808532 -2.146928943874
H -3.698448112554 0.467358631089 0.990651752507
H -4.648080633888 -0.831832039912 3.146809868879
H 5.841558519705 -0.189188141624 -2.081268704480
H 5.477321302893 1.419859041993 -1.896212171579
}
memory 8.166666666666666GB
set_num_threads(2)
psi4_io.set_default_path("/scratch/bdw2292/Psi4-1_7_Index_0_GrowFragment_0-farH_in17")
set maxiter 500
set freeze_core True
set PROPERTIES_ORIGIN ["COM"]
set cubeprop_tasks ['esp']
set basis aug-cc-pVTZ 
E, wfn = properties('mp2',properties=['dipole'],return_wfn=True)
cubeprop(wfn)
fchk(wfn, "1_7_Index_0_GrowFragment_0-esp.fchk")
oeprop(wfn,"GRID_ESP","WIBERG_LOWDIN_INDICES","MULLIKEN_CHARGES")
clean()
