molecule { 
0 1
H          4.76100       -0.55540        4.58480
N          4.75960       -0.28370        3.57990
C          4.10300        0.54460        1.49040
C          5.45820        0.01300        1.45740
C          3.68450        0.32970        2.90270
C          5.83990       -0.47630        2.69740
C          3.32760        1.04510        0.55700
O          2.58000        0.63820        3.39650
H          6.05830        0.00180        0.61790
H          6.74980       -0.90370        2.93090
H          3.68720        1.16550       -0.40280
H          2.35840        1.31820        0.78290
}
memory 100GB
set_num_threads(12)
psi4_io.set_default_path("/scratch/bdw2292/Psi4-farH_in17")
set maxiter 500
set freeze_core True
set PROPERTIES_ORIGIN ["COM"]
set cubeprop_tasks ['esp']
E, wfn = properties('hf/MINIX',properties=['dipole'],return_wfn=True)
cubeprop(wfn)
fchk(wfn, "farH_in17-esp_frag.fchk")
oeprop(wfn,"WIBERG_LOWDIN_INDICES","MULLIKEN_CHARGES")
clean()
