molecule { 
0 1
 C    1.282611   -0.449961   -1.070061
 N    0.557406   -0.400379    0.201735
 C   -0.821034   -0.814714    0.177532
 C   -1.792147    0.199705   -0.435036
 C    0.882660    0.708954    1.105766
 H   -1.148622   -1.048322    1.197621
 H   -0.912099   -1.743500   -0.392675
 N   -3.115070   -0.131802   -0.343858
 O   -1.410479    1.212645   -1.042034
 C    2.782282   -0.661962   -0.880417
 H    0.877019   -1.286974   -1.644301
 H    1.102648    0.458518   -1.660767
 C    1.741962    0.269859    2.292129
 H    1.391297    1.497241    0.541068
 H   -0.042557    1.165554    1.469919
 H    2.965815   -1.557868   -0.285809
 H    3.274385   -0.773713   -1.848940
 H    1.953340    1.112377    2.956265
 H    1.226317   -0.502075    2.867024
 H   -3.451634   -0.789488    0.334798
 H   -3.783482    0.486931   -0.768287
 H    3.244979    0.186620   -0.372506
 H    2.688799   -0.148814    1.951048
}
memory 8.166666666666666GB
set_num_threads(2)
psi4_io.set_default_path("/scratch/bdw2292/Psi4-4_27_Index_0-farH_in17")
set freeze_core True
E, wfn = energy('wb97x-d/6-311+G*',return_wfn=True)
oeprop(wfn,"WIBERG_LOWDIN_INDICES")
clean()
