molecule { 
0 1
 C    1.584420   -0.519666   -1.330945
 N    0.568633    0.122950   -0.499948
 C   -0.807319   -0.041748   -0.896329
 C   -1.760080   -0.394500    0.244608
 C    0.931768    1.421058    0.080321
 H   -0.871861   -0.837391   -1.644465
 H   -1.219793    0.863187   -1.376027
 N   -3.036777   -0.677534   -0.163519
 O   -1.463432   -0.342710    1.444852
 C    2.841267   -0.888735   -0.545958
 H    1.151684   -1.434203   -1.741509
 H    1.867102    0.117502   -2.189009
 C    1.257501    1.365544    1.572696
 H    1.783772    1.833479   -0.477373
 H    0.099338    2.117682   -0.074231
 H    2.576362   -1.513697    0.307038
 H    3.542031   -1.432499   -1.183338
 H    1.470369    2.367737    1.955951
 H    0.412478    0.940000    2.109144
 H   -3.248293   -0.952636   -1.104649
 H   -3.719105   -0.873936    0.547029
 H    3.353127   -0.000729   -0.171681
 H    2.128217    0.734501    1.756417
}
memory 8.166666666666666GB
set_num_threads(2)
psi4_io.set_default_path("/scratch/bdw2292/Psi4-4_27_Index_0-farH_in17")
set freeze_core True
E, wfn = energy('wb97x-d/6-311+G*',return_wfn=True)
oeprop(wfn,"WIBERG_LOWDIN_INDICES")
clean()
