molecule { 
0 1
 C    1.381675   -0.173616   -1.385382
 N    0.639913   -0.330886   -0.106618
 C   -0.758155   -0.730580   -0.318913
 C   -1.728279    0.380523   -0.812404
 C    0.792319    0.755851    0.904060
 H   -1.156178   -1.145332    0.624538
 H   -0.813055   -1.577589   -1.024663
 N   -3.038350   -0.023111   -0.864253
 O   -1.379102    1.505758   -1.173439
 C    2.908748   -0.177885   -1.185282
 H    1.104445   -0.996614   -2.065496
 H    1.045663    0.758324   -1.871992
 C    1.710527    0.306479    2.052099
 H    1.175949    1.662621    0.408703
 H   -0.189416    1.054365    1.306930
 H    3.227664   -1.073594   -0.649685
 H    3.419854   -0.163840   -2.149294
 H    1.839230    1.109723    2.779209
 H    1.290066   -0.555419    2.572720
 H   -3.341520   -0.813771   -0.321721
 H   -3.720583    0.668676   -1.126719
 H    3.241314    0.697242   -0.625508
 H    2.698681    0.027989    1.684781
}
set optking { 
  frozen_dihedral = ("
    1 2 3 4
    10 1 2 5
    13 5 2 1
    2 3 4 8
    3 4 8 20
  ")
}
set {
  geom_maxiter 400
  g_convergence GAU_LOOSE
  dynamic_level 1
}
memory 8.166666666666666GB
set_num_threads(2)
psi4_io.set_default_path("/scratch/bdw2292/Psi4-4_27_Index_0-farH_in17")
for _ in range(1):
  try:
    set opt_coordinates both
    optimize('wb97x-d/6-311G')
    break
  except OptimizationConvergenceError:
    break
  else:
    try:
      set opt_coordinates cartesian
      optimize('wb97x-d/6-311G')
      break
    except OptimizationConvergenceError:
      pass
clean()
