molecule { 
0 1
 C    1.612576   -0.477012   -1.359510
 N    0.598470   -0.099139   -0.367462
 C   -0.751421   -0.224955   -0.886226
 C   -1.839122   -0.226101    0.177480
 C    0.884037    1.183620    0.313322
 H   -0.820661   -1.166867   -1.437867
 H   -1.011573    0.576990   -1.604516
 N   -3.093473   -0.474135   -0.312095
 O   -1.659598    0.057061    1.369656
 C    2.982507   -0.735217   -0.741588
 H    1.274701   -1.394673   -1.847307
 H    1.703769    0.292820   -2.148616
 C    1.384678    0.997222    1.741564
 H    1.613790    1.753992   -0.279394
 H   -0.028621    1.782193    0.340380
 H    2.897974   -1.480409    0.049449
 H    3.674546   -1.103866   -1.501520
 H    1.599248    1.964684    2.203924
 H    0.615281    0.489687    2.318724
 H   -3.243597   -0.930753   -1.192494
 H   -3.855830   -0.453592    0.341709
 H    3.411813    0.171486   -0.313372
 H    2.293696    0.395521    1.764639
}
memory 8.166666666666666GB
set_num_threads(2)
psi4_io.set_default_path("/scratch/bdw2292/Psi4-4_27_Index_0-farH_in17")
set freeze_core True
E, wfn = energy('wb97x-d/6-311+G*',return_wfn=True)
oeprop(wfn,"WIBERG_LOWDIN_INDICES")
clean()
