molecule { 
0 1
 C    1.620027   -0.449941   -1.380583
 N    0.599841   -0.126824   -0.338718
 C   -0.761990   -0.118350   -0.908345
 C   -1.893497   -0.184468    0.149865
 C    0.894560    1.148255    0.415060
 H   -0.898054   -0.983875   -1.580949
 H   -0.918028    0.773928   -1.540789
 N   -3.146587   -0.306495   -0.395235
 O   -1.717098   -0.112886    1.366607
 C    3.018704   -0.731068   -0.795110
 H    1.282312   -1.347445   -1.926368
 H    1.657674    0.366743   -2.122450
 C    1.420982    0.852190    1.830351
 H    1.606052    1.773478   -0.149730
 H   -0.014845    1.765346    0.499237
 H    2.970651   -1.506170   -0.028188
 H    3.698450   -1.075520   -1.576363
 H    1.625814    1.778138    2.369783
 H    0.676586    0.291731    2.399923
 H   -3.252047   -0.654745   -1.332896
 H   -3.914203   -0.417738    0.246116
 H    3.456292    0.164787   -0.353574
 H    2.339813    0.266240    1.804025
}
set optking { 
  frozen_dihedral = ("
    1 2 3 4
    10 1 2 5
    13 5 2 1
    2 3 4 8
    3 4 8 20
  ")
}
set {
  geom_maxiter 400
  g_convergence GAU_LOOSE
  dynamic_level 1
}
memory 8.166666666666666GB
set_num_threads(2)
psi4_io.set_default_path("/scratch/bdw2292/Psi4-4_27_Index_0-farH_in17")
for _ in range(1):
  try:
    set opt_coordinates both
    optimize('wb97x-d/6-311G')
    break
  except OptimizationConvergenceError:
    break
  else:
    try:
      set opt_coordinates cartesian
      optimize('wb97x-d/6-311G')
      break
    except OptimizationConvergenceError:
      pass
clean()
