molecule { 
0 1
 C    1.225020   -0.519002   -0.956211
 N    0.497986    0.526024   -0.240801
 C   -0.939460    0.596904   -0.272656
 C   -1.680628   -0.720637   -0.079938
 C    1.196394    1.770724    0.063578
 H   -1.329757    1.065533   -1.202071
 H   -1.271957    1.238704    0.550309
 N   -3.034364   -0.613451   -0.253215
 O   -1.162572   -1.779868    0.301285
 C    2.406158   -1.063269   -0.155087
 H    0.539099   -1.337215   -1.150740
 H    1.586918   -0.145491   -1.932211
 C    1.602263    1.894186    1.535074
 H    2.086292    1.835659   -0.573886
 H    0.565460    2.625286   -0.216598
 H    2.046830   -1.452721    0.798581
 H    2.896852   -1.871776   -0.703702
 H    2.084331    2.855962    1.732541
 H    0.722218    1.812193    2.177265
 H   -3.447737    0.141734   -0.769099
 H   -3.592168   -1.431404   -0.084827
 H    3.154470   -0.291995    0.040576
 H    2.289341    1.093701    1.811709
}
memory 8.166666666666666GB
set_num_threads(2)
psi4_io.set_default_path("/scratch/bdw2292/Psi4-4_27_Index_0-farH_in17")
set freeze_core True
E, wfn = energy('wb97x-d/6-311+G*',return_wfn=True)
oeprop(wfn,"WIBERG_LOWDIN_INDICES")
clean()
