molecule { 
0 1
 C    1.254592    0.141963   -1.287233
 N    0.606825   -0.215951    0.000828
 C   -0.872778   -0.463570   -0.100409
 C   -1.733504   -0.002736   -1.325650
 C    0.954111    0.683907    1.148966
 H   -1.392041   -0.116988    0.809620
 H   -1.006722   -1.558743   -0.046598
 N   -3.077469   -0.220150   -1.141229
 O   -1.307488    0.479568   -2.376176
 C    2.790131    0.014599   -1.239199
 H    0.867985   -0.538902   -2.063180
 H    0.940034    1.156155   -1.584909
 C    1.938871   -0.003171    2.109086
 H    1.374979    1.628658    0.766201
 H    0.053722    0.992725    1.703083
 H    3.088323   -0.972187   -0.881347
 H    3.213210    0.148648   -2.236114
 H    2.181569    0.651040    2.947786
 H    1.511419   -0.922717    2.512382
 H   -3.445579   -0.330506   -0.211962
 H   -3.696569    0.102926   -1.866017
 H    3.236631    0.769649   -0.591348
 H    2.871157   -0.258905    1.605091
}
set optking { 
  frozen_dihedral = ("
    1 2 3 4
    10 1 2 5
    13 5 2 1
    2 3 4 8
    3 4 8 20
  ")
}
set {
  geom_maxiter 400
  g_convergence GAU_LOOSE
  dynamic_level 1
}
memory 8.166666666666666GB
set_num_threads(2)
psi4_io.set_default_path("/scratch/bdw2292/Psi4-4_27_Index_0-farH_in17")
for _ in range(1):
  try:
    set opt_coordinates both
    optimize('wb97x-d/6-311G')
    break
  except OptimizationConvergenceError:
    break
  else:
    try:
      set opt_coordinates cartesian
      optimize('wb97x-d/6-311G')
      break
    except OptimizationConvergenceError:
      pass
clean()
