molecule { 
0 1
 C    1.225667    0.354379   -1.493606
 N    0.589084    0.117130   -0.209892
 C   -0.312717   -0.972311   -0.012012
 C   -1.790163   -0.561263    0.070882
 C    0.748026    1.090335    0.858577
 H   -0.068811   -1.541213    0.900369
 H   -0.221788   -1.681300   -0.838644
 N   -2.648388   -1.576897    0.393988
 O   -2.196699    0.573372   -0.217395
 C    2.755957    0.380530   -1.428342
 H    0.905176   -0.434968   -2.177455
 H    0.868960    1.299289   -1.928348
 C    1.721024    0.649390    1.959670
 H    1.095735    2.026449    0.413128
 H   -0.230598    1.316231    1.294307
 H    3.138594   -0.561702   -1.030646
 H    3.181622    0.540773   -2.422021
 H    1.779410    1.400537    2.751582
 H    1.395572   -0.289884    2.414944
 H   -2.333841   -2.411016    0.854623
 H   -3.630672   -1.366803    0.422475
 H    3.106500    1.188013   -0.782042
 H    2.721587    0.493249    1.553834
}
memory 8.166666666666666GB
set_num_threads(2)
psi4_io.set_default_path("/scratch/bdw2292/Psi4-4_27_Index_0-farH_in17")
set freeze_core True
E, wfn = energy('wb97x-d/6-311+G*',return_wfn=True)
oeprop(wfn,"WIBERG_LOWDIN_INDICES")
clean()
