molecule { 
0 1
 C    1.300351   -0.052119   -1.334815
 N    0.620921   -0.319449   -0.032486
 C   -0.813550   -0.643144   -0.179126
 C   -1.711701    0.242226   -1.097366
 C    0.859899    0.703189    1.032505
 H   -1.289584   -0.721045    0.814525
 H   -0.886055   -1.673660   -0.569962
 N   -3.040402   -0.099160   -1.035921
 O   -1.318753    1.166108   -1.811889
 C    2.836595   -0.081864   -1.218828
 H    0.968290   -0.810787   -2.063339
 H    0.961008    0.921480   -1.724972
 C    1.841596    0.175871    2.091251
 H    1.234914    1.632611    0.573048
 H   -0.087864    1.000064    1.511828
 H    3.174932   -1.016251   -0.768091
 H    3.293821   -0.003940   -2.206483
 H    2.009482    0.923140    2.868426
 H    1.451397   -0.724496    2.568541
 H   -3.388900   -0.610671   -0.243144
 H   -3.683908    0.477742   -1.551976
 H    3.211041    0.749011   -0.620044
 H    2.807879   -0.069544    1.649989
}
set optking { 
  frozen_dihedral = ("
    1 2 3 4
    10 1 2 5
    13 5 2 1
    2 3 4 8
    3 4 8 20
  ")
}
set {
  geom_maxiter 400
  g_convergence GAU_LOOSE
  dynamic_level 1
}
memory 8.166666666666666GB
set_num_threads(2)
psi4_io.set_default_path("/scratch/bdw2292/Psi4-4_27_Index_0-farH_in17")
for _ in range(1):
  try:
    set opt_coordinates both
    optimize('wb97x-d/6-311G')
    break
  except OptimizationConvergenceError:
    break
  else:
    try:
      set opt_coordinates cartesian
      optimize('wb97x-d/6-311G')
      break
    except OptimizationConvergenceError:
      pass
clean()
