molecule { 
0 1
 C    1.109143   -0.004073   -1.367114
 N    0.468056    0.607723   -0.205020
 C   -0.965294    0.712408   -0.220163
 C   -1.668400   -0.630073    0.008133
 C    1.241109    1.567278    0.586180
 H   -1.358550    1.167080   -1.150461
 H   -1.283563    1.361557    0.600036
 N   -3.031963   -0.577392   -0.130259
 O   -1.087409   -1.663991    0.361832
 C    2.307124   -0.877473   -0.994612
 H    0.366601   -0.635865   -1.860028
 H    1.415477    0.767883   -2.098558
 C    1.730201    0.994059    1.920733
 H    2.099116    1.904215   -0.011997
 H    0.637541    2.464294    0.774027
 H    1.980626   -1.647389   -0.290631
 H    2.722764   -1.357223   -1.884273
 H    2.294079    1.743573    2.485420
 H    0.877852    0.668308    2.523662
 H   -3.484261    0.156430   -0.645692
 H   -3.552958   -1.420405    0.041750
 H    3.103396   -0.289832   -0.526928
 H    2.366843    0.123367    1.755513
}
memory 8.166666666666666GB
set_num_threads(2)
psi4_io.set_default_path("/scratch/bdw2292/Psi4-4_27_Index_0-farH_in17")
set freeze_core True
E, wfn = energy('wb97x-d/6-311+G*',return_wfn=True)
oeprop(wfn,"WIBERG_LOWDIN_INDICES")
clean()
