molecule { 
0 1
 C    1.624730   -0.394499   -1.382664
 N    0.621561   -0.242089   -0.272665
 C   -0.769676   -0.332517   -0.810400
 C   -1.996796    0.086142    0.060521
 C    0.869528    1.022990    0.525258
 H   -0.943393   -1.376576   -1.127196
 H   -0.842399    0.259397   -1.741127
 N   -3.199663   -0.181711   -0.546553
 O   -1.944305    0.572122    1.191347
 C    3.073122   -0.573781   -0.881879
 H    1.341702   -1.282643   -1.973267
 H    1.549789    0.467015   -2.069029
 C    1.503448    0.703994    1.890070
 H    1.499958    1.724835   -0.045483
 H   -0.062397    1.577444    0.689831
 H    3.134740   -1.382989   -0.152303
 H    3.736499   -0.821850   -1.712068
 H    1.708713    1.621535    2.443845
 H    0.825113    0.097093    2.492580
 H   -3.244322   -0.866366   -1.282160
 H   -4.031497   -0.009019   -0.006511
 H    3.455400    0.337236   -0.420650
 H    2.441554    0.159548    1.782173
}
set optking { 
  frozen_dihedral = ("
    1 2 3 4
    10 1 2 5
    13 5 2 1
    2 3 4 8
    3 4 8 20
  ")
}
set {
  geom_maxiter 400
  g_convergence GAU_LOOSE
  dynamic_level 1
}
memory 8.166666666666666GB
set_num_threads(2)
psi4_io.set_default_path("/scratch/bdw2292/Psi4-4_27_Index_0-farH_in17")
for _ in range(1):
  try:
    set opt_coordinates both
    optimize('wb97x-d/6-311G')
    break
  except OptimizationConvergenceError:
    break
  else:
    try:
      set opt_coordinates cartesian
      optimize('wb97x-d/6-311G')
      break
    except OptimizationConvergenceError:
      pass
clean()
