molecule { 
0 1
H         11.46170       -0.35010       -1.31830
C         10.88430       -1.30570       -1.16640
O          9.88110       -1.19320       -0.20240
C          8.61540       -0.66340       -0.41090
C          7.66120       -0.60180        0.67160
C          5.45820        0.01300        1.45740
C          5.83990       -0.47630        2.69740
C          6.39930       -0.06410        0.46320
C          7.09490       -1.01690        2.92680
C          8.00280       -1.07540        1.90020
O          8.34630       -0.25270       -1.54960
H         11.65550       -2.04620       -0.79340
H         10.55500       -1.62530       -2.15950
H          6.14600        0.33410       -0.49780
H          7.34390       -1.39140        3.92730
H          9.00180       -1.50930        2.09970
H          4.52080        0.41180        1.29250
H          5.16520       -0.43640        3.47730
}
memory 100GB
set_num_threads(12)
psi4_io.set_default_path("/scratch/bdw2292/Psi4-farH_in17")
set maxiter 500
set freeze_core True
set PROPERTIES_ORIGIN ["COM"]
set cubeprop_tasks ['esp']
E, wfn = properties('hf/MINIX',properties=['dipole'],return_wfn=True)
cubeprop(wfn)
fchk(wfn, "farH_in17-esp_frag.fchk")
oeprop(wfn,"WIBERG_LOWDIN_INDICES","MULLIKEN_CHARGES")
clean()
