molecule { 
0 1
H -0.726804621093 -0.247726259602 0.772613386184
C 0.000195193365 0.000098418116 0.000004902477
H -0.328138708598 0.891315013383 -0.533708328211
H 0.082829390019 -0.831530365136 -0.699134120368
H 0.969789805713 0.186769763712 0.460170689440
}
memory 8.333333333333334GB
set_num_threads(1)
psi4_io.set_default_path("/scratch/bdw2292/Psi4-57_Index_0-farH_in17")
set freeze_core True
set PROPERTIES_ORIGIN ["COM"]
set cubeprop_tasks ['esp']
E, wfn = properties('mp2/6-311G**',properties=['dipole'],return_wfn=True)
cubeprop(wfn)
fchk(wfn, "57_Index_0-dma.fchk")
clean()
