molecule { 
0 1
H         -6.37020        1.01670        1.06340
C         -6.95280        0.08910        0.82430
H         -6.70880       -0.63220        1.65040
H         -6.65280       -0.30900       -0.12250
H         -8.00320        0.28190        0.75850
}
memory 100GB
set_num_threads(12)
psi4_io.set_default_path("/scratch/bdw2292/Psi4-farH_in17")
set maxiter 500
set freeze_core True
set PROPERTIES_ORIGIN ["COM"]
set cubeprop_tasks ['esp']
E, wfn = properties('hf/MINIX',properties=['dipole'],return_wfn=True)
cubeprop(wfn)
fchk(wfn, "farH_in17-esp_frag.fchk")
oeprop(wfn,"WIBERG_LOWDIN_INDICES","MULLIKEN_CHARGES")
clean()
