molecule { 
0 1
C 1.638228759196 -0.258768891248 0.093957258754
C 0.176048282414 -0.024144824762 0.016339011568
C -1.965065180048 -0.251218649522 -1.068667207105
C -2.564666548806 0.470510253294 -0.035621822250
C -0.594984867576 -0.502013291362 -1.048704295731
C -1.790317150848 0.944959449261 1.024651351386
C -0.420900279956 0.699461863782 1.053499270125
O 2.112305973372 -0.970549654496 -0.964078039426
O 2.364610164460 0.130563472324 0.994361260254
H -0.123400970729 -1.062523120894 -1.849131642338
H -2.255887565483 1.507137775752 1.829789768246
H 0.201194292255 1.058653649957 1.867974563113
H -2.567984929854 -0.620529974136 -1.894039275404
H -3.634323312894 0.663017517208 -0.056854206569
H 3.073918340046 -1.059484584052 -0.800495442917
}
memory 8.333333333333334GB
set_num_threads(1)
psi4_io.set_default_path("/scratch/bdw2292/Psi4-34_Index_0-farH_in17")
set maxiter 500
set freeze_core True
set PROPERTIES_ORIGIN ["COM"]
set cubeprop_tasks ['esp']
E, wfn = properties('mp2/aug-cc-pVTZ',properties=['dipole'],return_wfn=True)
cubeprop(wfn)
fchk(wfn, "34_Index_0-esp.fchk")
oeprop(wfn,"GRID_ESP","WIBERG_LOWDIN_INDICES","MULLIKEN_CHARGES")
clean()
