molecule { 
0 1
Cl   -1.163000   -0.411800   -1.285400
Cl   -0.610600   -0.592500    1.565500
Cl    0.203200    1.768600    0.072700
Cl    1.570400   -0.764300   -0.352800
 C   -0.000000   -0.000000   -0.000000
}
set {
  geom_maxiter 400
  g_convergence GAU
  dynamic_level 1
}
memory 15GB
set_num_threads(4)
psi4_io.set_default_path("/scratch/bdw2292/Psi4-CCl4")
for _ in range(1):
  try:
    set opt_coordinates both
    optimize('mp2/6-31G*')
    break
  except OptimizationConvergenceError:
    break
  else:
    try:
      set opt_coordinates cartesian
      optimize('mp2/6-31G*')
      break
    except OptimizationConvergenceError:
      pass
clean()
