molecule { 
0 1
 Cl                  0.4394908    -0.1801125    -0.5551848
  C                 -1.2708923    -0.1638391    -0.0650151
  H                 -1.8543908    -0.7369805    -0.7855537
  H                 -1.3567971    -0.6113388     0.9253055
  H                 -1.6196502     0.8685789    -0.0375069
--
0 1
 Cl                  3.5746025     1.7523703     2.8852779
  C                  1.8054161     1.5851249     2.9893743
  H                  1.4614248     0.9506799     2.1729357
  H                  1.5496237     1.1332583     3.9475036
  H                  1.3523579     2.5731452     2.9110382
}
memory 15GB
set_num_threads(4)
psi4_io.set_default_path("/scratch/bdw2292/Psi4-CH3Cl")
set maxiter 500
set freeze_core True
set PROPERTIES_ORIGIN ["COM"]
e_dim= energy('mp2/aug-cc-pV[TQ]Z',bsse_type='cp')

psi4.print_out('CP Energy = %10.6f' % (e_dim))
clean()
