molecule { 
0 1
 C   -0.738423   -0.448864   -0.099164
 N    0.459745   -0.902978    0.499900
 C    1.641625   -0.258046    0.164513
 C    2.408381    0.418833    1.301054
 C    0.361135   -1.531288    1.804010
 O    1.987246   -0.091076   -0.983865
 C   -1.836163   -0.084213    0.675481
 C   -3.068600    0.482003   -1.309862
 C   -2.992061    0.371982    0.067062
 C   -1.973635    0.130946   -2.081268
 C   -0.818786   -0.339318   -1.485505
 H    1.147926   -2.279510    1.895511
 H   -0.608087   -2.019517    1.880081
 H    0.446621   -0.824140    2.636308
 N    3.578506    1.145612    0.850533
 H    2.734523   -0.291760    2.067797
 H    1.727553    1.121540    1.794844
 H   -1.795899   -0.134104    1.752649
 H   -3.835781    0.652262    0.680952
 H   -2.020152    0.213357   -3.156919
 H    0.033264   -0.611508   -2.085939
 H    4.160312    0.511209    0.305956
 H   -3.973295    0.841197   -1.776583
 H    3.284037    1.834381    0.159651
}
memory 20GB
set_num_threads(5)
psi4_io.set_default_path("/scratch/liuchw/Psi4-3_25_Index_0_GrowFragment_3-farH_in17")
set freeze_core True
E, wfn = energy('wb97x-d/6-311+G*',return_wfn=True)
oeprop(wfn,"WIBERG_LOWDIN_INDICES")
clean()
