molecule { 
0 1
 C   -0.839781   -0.096777    0.062319
 N    0.325548   -0.244616    0.862678
 C    1.459807    0.417642    0.501082
 C    2.799142   -0.127315    1.001996
 C    0.224174   -1.171107    1.970125
 O    1.436862    1.354564   -0.273906
 C   -2.058364    0.220352    0.649542
 C   -3.130423    0.082974   -1.492498
 C   -3.198395    0.309379   -0.128625
 C   -1.916416   -0.236064   -2.077161
 C   -0.774159   -0.335897   -1.304439
 H    1.183278   -1.640783    2.171781
 H   -0.486139   -1.956981    1.711844
 H   -0.116942   -0.666293    2.878071
 N    3.925437    0.708650    0.629005
 H    2.956195   -1.125098    0.575761
 H    2.822731   -0.238612    2.090190
 H   -2.110805    0.406443    1.711571
 H   -4.141874    0.561193    0.332507
 H   -1.859070   -0.417371   -3.140057
 H    0.173754   -0.582540   -1.757429
 H    3.857441    0.902902   -0.369439
 H   -4.021027    0.155576   -2.098450
 H    3.799018    1.626779    1.050726
}
memory 20GB
set_num_threads(5)
psi4_io.set_default_path("/scratch/liuchw/Psi4-3_25_Index_0_GrowFragment_3-farH_in17")
set freeze_core True
E, wfn = energy('wb97x-d/6-311+G*',return_wfn=True)
oeprop(wfn,"WIBERG_LOWDIN_INDICES")
clean()
