molecule { 
0 1
 C   -0.780356   -0.274807    0.183717
 N    0.298482   -0.449264    1.068211
 C    1.446687    0.389529    0.895831
 C    2.612380   -0.267592    0.184148
 C    0.031653   -0.696291    2.477002
 O    1.526258    1.478678    1.396293
 C   -2.089896   -0.086072    0.625012
 C   -2.892743   -0.025116   -1.641246
 C   -3.129589    0.027327   -0.280076
 C   -1.593168   -0.188257   -2.089924
 C   -0.550809   -0.313764   -1.193228
 H    0.837334   -1.317997    2.870480
 H   -0.912752   -1.221001    2.582608
 H   -0.017291    0.229286    3.062026
 N    3.801812    0.557117    0.093600
 H    2.332391   -0.593821   -0.820794
 H    2.853961   -1.181133    0.740050
 H   -2.312260   -0.004406    1.676984
 H   -4.134630    0.171175    0.089295
 H   -1.386348   -0.223847   -3.149504
 H    0.450564   -0.446850   -1.569997
 H    3.547168    1.445738   -0.335225
 H   -3.707028    0.067196   -2.343364
 H    4.078167    0.831171    1.035300
}
memory 20GB
set_num_threads(5)
psi4_io.set_default_path("/scratch/liuchw/Psi4-3_25_Index_0_GrowFragment_3-farH_in17")
set freeze_core True
E, wfn = energy('wb97x-d/6-311+G*',return_wfn=True)
oeprop(wfn,"WIBERG_LOWDIN_INDICES")
clean()
