molecule { 
0 1
 C   -0.693693   -0.279445    0.268881
 N    0.419038   -0.756995    1.042486
 C    1.664942   -0.341640    0.530366
 C    2.120625    0.975118    1.133485
 C    0.316440   -2.207211    1.235034
 O    2.407105   -1.044321   -0.113820
 C   -1.731744    0.369769    0.921682
 C   -2.896802    0.594560   -1.163672
 C   -2.832707    0.802993    0.203886
 C   -1.858214   -0.049749   -1.814553
 C   -0.758146   -0.492530   -1.101867
 H    1.311924   -2.628029    1.352958
 H   -0.192586   -2.709649    0.408919
 H   -0.259146   -2.376737    2.146569
 N    3.352995    1.506431    0.583090
 H    2.273901    0.788605    2.202825
 H    1.334333    1.734155    1.071069
 H   -1.666385    0.527106    1.987067
 H   -3.641757    1.305468    0.712949
 H   -1.904227   -0.211404   -2.881399
 H    0.055265   -0.996457   -1.604502
 H    4.035321    0.748744    0.562107
 H   -3.755840    0.934186   -1.722615
 H    3.209350    1.714034   -0.403751
}
memory 20GB
set_num_threads(5)
psi4_io.set_default_path("/scratch/liuchw/Psi4-3_25_Index_0_GrowFragment_3-farH_in17")
set freeze_core True
E, wfn = energy('wb97x-d/6-311+G*',return_wfn=True)
oeprop(wfn,"WIBERG_LOWDIN_INDICES")
clean()
