molecule { 
0 1
 C   -0.673555   -0.340341    0.254156
 N    0.320622   -0.365792    1.256367
 C    1.588829    0.133794    1.170129
 C    2.192212    0.450954   -0.194875
 C   -0.122217   -0.695611    2.603707
 O    2.264754    0.269580    2.174013
 C   -1.921769    0.204750    0.558656
 C   -2.692181   -0.213354   -1.675380
 C   -2.919263    0.262934   -0.395741
 C   -1.460001   -0.761254   -1.984029
 C   -0.457178   -0.824239   -1.032874
 H    0.698332   -1.197255    3.116174
 H   -0.983263   -1.357318    2.546880
 H   -0.375858    0.198707    3.178108
 N    3.574263    0.886775   -0.107104
 H    1.606024    1.214129   -0.717426
 H    2.188705   -0.439307   -0.826604
 H   -2.110135    0.597379    1.545601
 H   -3.876799    0.690592   -0.137880
 H   -1.273522   -1.150259   -2.973908
 H    0.472847   -1.303447   -1.287243
 H    3.629213    1.657865    0.557052
 H   -3.469802   -0.163856   -2.422007
 H    4.109726    0.151570    0.351426
}
memory 20GB
set_num_threads(5)
psi4_io.set_default_path("/scratch/liuchw/Psi4-3_25_Index_0_GrowFragment_3-farH_in17")
set freeze_core True
E, wfn = energy('wb97x-d/6-311+G*',return_wfn=True)
oeprop(wfn,"WIBERG_LOWDIN_INDICES")
clean()
