molecule { 
0 1
 C   -0.816028   -0.228762   -0.039515
 N    0.386359   -0.461809    0.678634
 C    1.517388    0.208315    0.317397
 C    2.748953    0.008149    1.201464
 C    0.282659   -1.217250    1.907951
 O    1.575681    0.933027   -0.656317
 C   -1.986266    0.096665    0.637458
 C   -3.172575    0.197372   -1.446871
 C   -3.157661    0.306847   -0.067168
 C   -2.008088   -0.129157   -2.120923
 C   -0.834506   -0.350192   -1.423929
 H    1.186145   -1.804272    2.065813
 H   -0.554303   -1.909258    1.818811
 H    0.128547   -0.573772    2.779503
 N    3.874440    0.829663    0.796597
 H    3.071865   -1.039117    1.170468
 H    2.519393    0.237655    2.246928
 H   -1.982274    0.198783    1.712190
 H   -4.061025    0.563434    0.466513
 H   -2.013477   -0.220245   -3.196741
 H    0.071946   -0.604599   -1.948613
 H    4.024278    0.691051   -0.202000
 H   -4.087869    0.366584   -1.993807
 H    3.596410    1.807888    0.853351
}
memory 20GB
set_num_threads(5)
psi4_io.set_default_path("/scratch/liuchw/Psi4-3_25_Index_0_GrowFragment_3-farH_in17")
set freeze_core True
E, wfn = energy('wb97x-d/6-311+G*',return_wfn=True)
oeprop(wfn,"WIBERG_LOWDIN_INDICES")
clean()
