%RWF=/scratch/liuchw/Gau-3_24_Index_0-farH_in17/,1267GB
%Nosave
%Chk=3_24_Index_0-dma_temp.chk
%Mem=20GB
%Nproc=5
#P MP2/6-311G** Sp Density=MP2 MaxDisk=1267GB 

3_24_Index_0 Gaussian SP Calculation on node165.bme.utexas.edu

0 1
 C    2.296015    0.249828    0.498305
 N    1.095677   -0.295169    0.893019
 C   -0.103982   -0.097135    0.157469
 C   -0.088653   -0.060823   -1.243690
 C    1.023648   -0.968028    2.183086
 C   -1.322385    0.012555    0.839178
 C   -2.510268    0.169747    0.127574
 C   -2.497645    0.218399   -1.264688
 C   -1.282354    0.107960   -1.940314
 H   -1.351746   -0.004237    1.923850
 H    0.849410   -0.144730   -1.776126
 O    2.500804    0.912910   -0.511229
 H    2.032202   -1.249773    2.489820
 H    0.419641   -1.872921    2.090425
 H    0.593915   -0.329937    2.961727
 H   -3.448350    0.255538    0.670025
 H   -1.259217    0.137897   -3.026625
 H   -3.424372    0.344698   -1.817755
 H    3.101342    0.012007    1.216534



