molecule { 
0 1
O         -4.29600        0.70990        0.04690
C         -4.15550       -0.51950       -0.13450
N         -2.88880       -1.10540       -0.07100
C         -2.79090       -2.55700       -0.33120
C         -1.67290       -0.44230        0.21710
C          0.81870        0.79670        0.73960
C          0.76840       -0.39010        0.07510
C         -0.38080        1.37730        1.15150
C         -0.45250       -0.99130       -0.17810
C         -1.58120        0.75890        0.88810
C         -5.39960       -1.30330       -0.41360
H         -2.17240       -3.04390        0.42450
H         -2.33400       -2.65370       -1.32860
H         -3.80720       -3.03690       -0.27370
H          1.69470       -0.88110       -0.25600
H         -0.33620        2.31250        1.67300
H         -0.49600       -1.93920       -0.70890
H         -2.48410        1.26410        1.24600
H         -5.54410       -2.13730        0.30810
H         -5.24070       -1.74240       -1.43810
N          2.01500        1.48570        1.02620
N         -6.53810       -0.48150       -0.39510
H          2.04670        2.35900        1.59500
H          2.86020        1.12530        0.67260
H         -6.66320       -0.09490        0.54050
H         -7.35880       -1.03180       -0.64810
}
memory 100GB
set_num_threads(12)
psi4_io.set_default_path("/scratch/bdw2292/Psi4-farH_in17")
set maxiter 500
set freeze_core True
set PROPERTIES_ORIGIN ["COM"]
set cubeprop_tasks ['esp']
E, wfn = properties('hf/MINIX',properties=['dipole'],return_wfn=True)
cubeprop(wfn)
fchk(wfn, "farH_in17-esp_frag.fchk")
oeprop(wfn,"WIBERG_LOWDIN_INDICES","MULLIKEN_CHARGES")
clean()
