%RWF=/scratch/liuchw/Gau-7_11_Index_0-farH_in17/,1267GB
%Nosave
%Chk=7_11_Index_0-dma_temp.chk
%Mem=20GB
%Nproc=5
#P MP2/6-311G** Sp Density=MP2 MaxDisk=1267GB 

7_11_Index_0 Gaussian SP Calculation on node165.bme.utexas.edu

0 1
 N    2.077116   -0.433338   -0.064858
 C    0.746192   -0.150438   -0.010396
 C   -0.173591   -1.269453   -0.281189
 C   -1.299796   -1.085256   -1.095676
 C    0.306802    1.100575    0.359305
 C    0.095467   -2.539206    0.250253
 H    2.693458    0.381258    0.009369
 C   -1.025215    1.592372    0.631416
 N    0.420749    3.313801    0.778483
 C    1.232741    2.233383    0.486455
 C   -0.914833    2.922875    0.889916
 C   -0.762311   -3.604119   -0.016142
 C   -2.150573   -2.155983   -1.361000
 C   -1.885666   -3.416390   -0.822666
 H    0.960023   -2.673378    0.895760
 H   -1.487848   -0.108070   -1.532089
 H    0.791815    4.237883    0.955330
 O    2.472743    2.268907    0.358373
 H   -0.556013   -4.582720    0.410048
 H   -3.017820   -2.009342   -1.999926
 H   -2.552570   -4.249111   -1.030736
 H   -1.936452    1.012271    0.675064
 H   -1.677095    3.643827    1.153355
 H    2.367063   -1.192938   -0.667608



