%RWF=/scratch/bdw2292/Gau-4_27_Index_0-farH_in17/,42.333333333333336GB
%Nosave
%Chk=4_27_Index_0-dma_temp.chk
%Mem=8.166666666666666GB
%Nproc=2
#P MP2/6-311G** Sp Density=MP2 MaxDisk=42.333333333333336GB 

4_27_Index_0 Gaussian SP Calculation on node74.bme.utexas.edu

0 1
 C    1.582966   -0.439358   -1.348214
 N    0.587457   -0.139443   -0.319354
 C   -0.736108   -0.108591   -0.906214
 C   -1.844455   -0.179192    0.138524
 C    0.893469    1.107449    0.407624
 H   -0.844066   -0.977587   -1.567899
 H   -0.918666    0.784504   -1.537372
 N   -3.101770   -0.281439   -0.404850
 O   -1.661996   -0.090342    1.348157
 C    2.963473   -0.708176   -0.771693
 H    1.245798   -1.336538   -1.879452
 H    1.648257    0.372018   -2.099411
 C    1.430088    0.841779    1.805017
 H    1.599978    1.718771   -0.177093
 H   -0.023176    1.696763    0.497377
 H    2.907491   -1.496334   -0.017857
 H    3.642074   -1.030322   -1.567181
 H    1.635552    1.785717    2.321329
 H    0.679597    0.284970    2.365689
 H   -3.228180   -0.615905   -1.349834
 H   -3.852782   -0.465502    0.248094
 H    3.394209    0.183068   -0.311400
 H    2.352199    0.259000    1.777682



