molecule { 
0 1
 H    1.227722    0.803540   -0.593211
 H    0.774633    0.885998    1.114638
 C    0.669643    0.314864    0.200683
 S    1.417102   -1.412915    0.484311
 C    3.043210   -0.921248    0.834219
 N    4.142412   -0.617022    1.064553
 C   -2.040571   -1.338048   -1.697823
 O   -3.067375   -1.337365   -0.995277
 N   -0.933031   -0.621583   -1.397604
 H   -0.159616   -0.621057   -2.040995
 C   -0.798053    0.144977   -0.156359
 H   -1.317507   -0.417908    0.625078
 C   -1.463420    1.532684   -0.238807
 O   -0.842020    2.559504    0.083692
 N   -2.753499    1.526700   -0.638370
 H   -1.965104   -1.924527   -2.615863
 H   -3.274410    0.663766   -0.709013
 H   -3.235757    2.406090   -0.691512
}
memory 8.5GB
set_num_threads(2)
psi4_io.set_default_path("/scratch/bdw2292/Psi4-ModifiedRes")
set freeze_core True
E, wfn = energy('wb97x-d/6-311+G*',return_wfn=True)
oeprop(wfn,"WIBERG_LOWDIN_INDICES")
clean()
