molecule { 
0 1
 H    1.191493    0.202443   -0.443217
 H    0.758603    0.631178    1.216374
 C    0.610534   -0.093967    0.425895
 S    1.250301   -1.782352    1.027589
 C    2.906945   -1.339436    1.287028
 N    4.025787   -1.072988    1.463282
 C   -2.213363   -1.895306   -1.143636
 O   -3.232426   -1.699551   -0.457354
 N   -1.060622   -1.207080   -0.977126
 H   -0.294338   -1.374225   -1.607193
 C   -0.867742   -0.234091    0.100896
 H   -1.415178   -0.608514    0.971215
 C   -1.445255    1.153776   -0.240249
 O   -0.758668    2.181391   -0.111727
 N   -2.736355    1.154438   -0.636610
 H   -2.182096   -2.645334   -1.936697
 H   -3.310550    0.327745   -0.547699
 H   -3.163673    2.036866   -0.854335
}
memory 8.5GB
set_num_threads(2)
psi4_io.set_default_path("/scratch/bdw2292/Psi4-ModifiedRes")
set freeze_core True
E, wfn = energy('wb97x-d/6-311+G*',return_wfn=True)
oeprop(wfn,"WIBERG_LOWDIN_INDICES")
clean()
