molecule { 
0 1
 H    1.349736    0.408101   -0.391721
 H    0.811601    0.039778    1.251682
 C    0.635321   -0.155769    0.201362
 S    0.914155   -2.011374   -0.119997
 C    2.584167   -2.093294    0.340871
 N    3.705804   -2.176441    0.638515
 C   -2.262773   -0.360010   -2.090411
 O   -3.305521   -0.330427   -1.411953
 N   -1.037820   -0.083905   -1.586719
 H   -0.246474   -0.072114   -2.207817
 C   -0.802803    0.176218   -0.163901
 H   -1.493376   -0.461384    0.396732
 C   -1.103506    1.634115    0.234744
 O   -0.274925    2.308371    0.869926
 N   -2.326442    2.083677   -0.120032
 H   -2.269767   -0.608803   -3.153764
 H   -3.036891    1.453777   -0.465697
 H   -2.574528    3.023496    0.132674
}
memory 8.5GB
set_num_threads(2)
psi4_io.set_default_path("/scratch/bdw2292/Psi4-ModifiedRes")
set freeze_core True
E, wfn = energy('wb97x-d/6-311+G*',return_wfn=True)
oeprop(wfn,"WIBERG_LOWDIN_INDICES")
clean()
