molecule { 
0 1
 H   -3.594667   -3.464553   -6.288151
 H   -4.628499   -3.556953   -4.856556
 C   -4.302840   -2.919970   -5.669444
 S   -5.816797   -2.483079   -6.737438
 C   -6.247750   -4.092304   -7.220119
 N   -6.549258   -5.161458   -7.566248
 C   -3.163707    0.569503   -6.125885
 O   -3.358306    1.187738   -5.063813
 N   -3.262104   -0.775328   -6.234110
 H   -3.042587   -1.211956   -7.113487
 C   -3.711768   -1.627449   -5.130717
 H   -4.471484   -1.063198   -4.580955
 C   -2.582979   -1.960150   -4.136424
 O   -2.357247   -3.133978   -3.796059
 N   -1.912962   -0.891925   -3.652874
 H   -2.895557    1.079304   -7.053597
 H   -2.247582    0.048719   -3.808621
 H   -1.178620   -1.056482   -2.987758
}
memory 8.5GB
set_num_threads(2)
psi4_io.set_default_path("/scratch/bdw2292/Psi4-ModifiedRes")
set freeze_core True
E, wfn = energy('wb97x-d/6-311+G*',return_wfn=True)
oeprop(wfn,"WIBERG_LOWDIN_INDICES")
clean()
