molecule { 
0 1
 H    1.275355    0.515479   -0.899817
 H    0.811810    0.479621    0.806778
 C    0.700971   -0.018884   -0.148047
 S    1.409071   -1.779090    0.007208
 C    3.042577   -1.351430    0.403124
 N    4.146542   -1.091845    0.663425
 C   -2.029533   -1.462432   -2.183446
 O   -3.061510   -1.493110   -1.489183
 N   -0.909421   -0.795273   -1.822512
 H   -0.132044   -0.762218   -2.460251
 C   -0.767289   -0.128762   -0.525585
 H   -1.303933   -0.738920    0.207296
 C   -1.402583    1.275149   -0.504543
 O   -0.762245    2.260506   -0.100181
 N   -2.689393    1.327608   -0.911130
 H   -1.959415   -1.978720   -3.143128
 H   -3.227852    0.484122   -1.051379
 H   -3.152554    2.218716   -0.899411
}
memory 8.5GB
set_num_threads(2)
psi4_io.set_default_path("/scratch/bdw2292/Psi4-ModifiedRes")
set freeze_core True
E, wfn = energy('wb97x-d/6-311+G*',return_wfn=True)
oeprop(wfn,"WIBERG_LOWDIN_INDICES")
clean()
