molecule { 
0 1
 H   -0.648137    1.606327   -1.403879
 H    0.886788    1.382370   -0.554372
 C    0.085932    0.874779   -1.077285
 S    0.815012    0.029036   -2.618892
 C    1.403570    1.449025   -3.422287
 N    1.800673    2.386013   -3.986385
 C   -2.016657   -2.132754   -0.610062
 O   -1.554129   -2.791160    0.338945
 N   -1.621980   -0.872655   -0.903945
 H   -2.084551   -0.374045   -1.645285
 C   -0.532577   -0.196937   -0.194466
 H    0.209778   -0.961726    0.053357
 C   -0.989701    0.441686    1.131811
 O   -0.727765    1.627946    1.393506
 N   -1.640781   -0.389746    1.973731
 H   -2.782685   -2.534165   -1.276739
 H   -1.667845   -1.386030    1.807231
 H   -1.943299   -0.024040    2.858862
}
memory 8.5GB
set_num_threads(2)
psi4_io.set_default_path("/scratch/bdw2292/Psi4-ModifiedRes")
set freeze_core True
E, wfn = energy('wb97x-d/6-311+G*',return_wfn=True)
oeprop(wfn,"WIBERG_LOWDIN_INDICES")
clean()
