molecule { 
0 1
 H    0.774593   -0.574904   -1.657643
 H    0.209652   -0.704674    0.014679
 C   -0.025020   -0.935465   -1.016718
 S   -0.130062   -2.827472   -1.210667
 C    1.494737   -3.215080   -0.741174
 N    2.578621   -3.511262   -0.439689
 C   -2.930568   -0.704407   -3.289243
 O   -3.933454   -0.417881   -2.610694
 N   -1.667121   -0.649334   -2.809395
 H   -0.894731   -0.851472   -3.421323
 C   -1.369237   -0.346177   -1.406444
 H   -2.171147   -0.791149   -0.810135
 C   -1.364077    1.167033   -1.112793
 O   -0.406290    1.698057   -0.525506
 N   -2.476257    1.830414   -1.496316
 H   -3.005741   -1.022063   -4.331216
 H   -3.302451    1.331150   -1.794083
 H   -2.527639    2.816530   -1.313311
}
memory 8.5GB
set_num_threads(2)
psi4_io.set_default_path("/scratch/bdw2292/Psi4-ModifiedRes")
set freeze_core True
E, wfn = energy('wb97x-d/6-311+G*',return_wfn=True)
oeprop(wfn,"WIBERG_LOWDIN_INDICES")
clean()
