molecule { 
0 1
 H    0.988499   -0.157436   -1.552557
 H    0.460531   -0.213927    0.134536
 C    0.264846   -0.584739   -0.863777
 S    0.487875   -2.475162   -0.856743
 C    2.158082   -2.522607   -0.393055
 N    3.280597   -2.582560   -0.092690
 C   -2.658729   -1.090477   -3.072939
 O   -3.692848   -0.909413   -2.405612
 N   -1.420096   -0.771366   -2.631839
 H   -0.634406   -0.889699   -3.248979
 C   -1.164981   -0.275701   -1.277115
 H   -1.871117   -0.783444   -0.613059
 C   -1.416363    1.238804   -1.139482
 O   -0.562036    1.987152   -0.635138
 N   -2.628130    1.657889   -1.563494
 H   -2.682985   -1.525243   -4.074381
 H   -3.359238    0.998208   -1.790032
 H   -2.846424    2.634588   -1.478930
}
memory 8.5GB
set_num_threads(2)
psi4_io.set_default_path("/scratch/bdw2292/Psi4-ModifiedRes")
set freeze_core True
E, wfn = energy('wb97x-d/6-311+G*',return_wfn=True)
oeprop(wfn,"WIBERG_LOWDIN_INDICES")
clean()
