molecule { 
0 1
 H    1.263682    0.498132   -0.730315
 H    0.737209    0.464304    0.957588
 C    0.610475    0.005626   -0.015144
 S    1.129269   -1.821353    0.111897
 C    2.783078   -1.575277    0.572125
 N    3.898513   -1.439095    0.874052
 C   -2.181751   -1.094384   -2.177204
 O   -3.234109   -1.034628   -1.516471
 N   -1.011746   -0.556603   -1.762041
 H   -0.213024   -0.587740   -2.372961
 C   -0.847148    0.058336   -0.442501
 H   -1.469950   -0.509973    0.255075
 C   -1.333976    1.519844   -0.402700
 O   -0.608654    2.422025    0.049564
 N   -2.593637    1.716973   -0.848273
 H   -2.132555   -1.590689   -3.148659
 H   -3.212466    0.938868   -1.029264
 H   -2.961343    2.651305   -0.826119
}
memory 8.5GB
set_num_threads(2)
psi4_io.set_default_path("/scratch/bdw2292/Psi4-ModifiedRes")
set freeze_core True
E, wfn = energy('wb97x-d/6-311+G*',return_wfn=True)
oeprop(wfn,"WIBERG_LOWDIN_INDICES")
clean()
