molecule { 
0 1
 H    1.266612    0.807600   -0.588629
 H    0.917497    0.871817    1.144529
 C    0.759101    0.309508    0.232841
 S    1.526595   -1.418946    0.450345
 C    3.169767   -0.926725    0.707040
 N    4.281136   -0.623353    0.870386
 C   -2.057053   -1.329384   -1.518283
 O   -3.039756   -1.340459   -0.755319
 N   -0.935192   -0.613025   -1.276669
 H   -0.203046   -0.602409   -1.966577
 C   -0.727053    0.139260   -0.036886
 H   -1.196311   -0.435417    0.767554
 C   -1.400400    1.525327   -0.060326
 O   -0.764137    2.550367    0.237571
 N   -2.712318    1.519041   -0.380946
 H   -2.035609   -1.904819   -2.446120
 H   -3.233784    0.654960   -0.431308
 H   -3.199781    2.397033   -0.394510
}
memory 8.5GB
set_num_threads(2)
psi4_io.set_default_path("/scratch/bdw2292/Psi4-ModifiedRes")
set freeze_core True
E, wfn = energy('wb97x-d/6-311+G*',return_wfn=True)
oeprop(wfn,"WIBERG_LOWDIN_INDICES")
clean()
