molecule { 
0 1
 H    1.018568   -0.178094   -1.471027
 H    0.464196   -0.227139    0.207846
 C    0.273256   -0.588124   -0.795032
 S    0.446737   -2.484576   -0.793846
 C    2.108212   -2.578303   -0.306570
 N    3.223820   -2.668346    0.011397
 C   -2.631302   -1.007209   -3.047698
 O   -3.667150   -0.800519   -2.390373
 N   -1.391198   -0.722840   -2.588061
 H   -0.600422   -0.869592   -3.192410
 C   -1.141749   -0.240183   -1.227253
 H   -1.869726   -0.732698   -0.575178
 C   -1.357333    1.278912   -1.085886
 O   -0.489873    2.000227   -0.564889
 N   -2.551690    1.731663   -1.524688
 H   -2.655061   -1.436858   -4.051332
 H   -3.295671    1.091513   -1.764734
 H   -2.746097    2.713223   -1.438267
}
memory 8.5GB
set_num_threads(2)
psi4_io.set_default_path("/scratch/bdw2292/Psi4-ModifiedRes")
set freeze_core True
E, wfn = energy('wb97x-d/6-311+G*',return_wfn=True)
oeprop(wfn,"WIBERG_LOWDIN_INDICES")
clean()
