molecule { 
0 1
 H    1.070879    0.235200   -1.086695
 H    0.623656   -0.257045    0.551516
 C    0.483325   -0.466973   -0.501510
 S    1.120579   -2.224933   -0.855923
 C    2.774375   -1.984623   -0.391806
 N    3.891039   -1.847543   -0.095071
 C   -2.325552   -1.186393   -2.798865
 O   -3.350524   -1.371326   -2.118283
 N   -1.175108   -0.687456   -2.291332
 H   -0.402238   -0.510211   -2.910499
 C   -0.992102   -0.413903   -0.863488
 H   -1.545914   -1.183171   -0.316723
 C   -1.568430    0.951752   -0.441543
 O   -0.883944    1.762335    0.205736
 N   -2.856228    1.162051   -0.789833
 H   -2.286891   -1.417488   -3.865412
 H   -3.430819    0.411077   -1.145991
 H   -3.281871    2.031480   -0.522231
}
memory 8.5GB
set_num_threads(2)
psi4_io.set_default_path("/scratch/bdw2292/Psi4-ModifiedRes")
set freeze_core True
E, wfn = energy('wb97x-d/6-311+G*',return_wfn=True)
oeprop(wfn,"WIBERG_LOWDIN_INDICES")
clean()
