molecule { 
0 1
 H    1.279478    0.761381   -0.624633
 H    0.824369    0.835250    1.083104
 C    0.710689    0.275104    0.163468
 S    1.427693   -1.468845    0.423463
 C    3.060394   -1.009949    0.785984
 N    4.163887   -0.726472    1.022888
 C   -2.019709   -1.303806   -1.769018
 O   -3.049205   -1.296963   -1.070497
 N   -0.901722   -0.610271   -1.453888
 H   -0.127417   -0.612417   -2.096303
 C   -0.758560    0.135282   -0.200842
 H   -1.287861   -0.434035    0.569748
 C   -1.404047    1.532960   -0.259069
 O   -0.770273    2.545335    0.084276
 N   -2.692781    1.551487   -0.662347
 H   -1.949941   -1.877979   -2.695305
 H   -3.224546    0.696736   -0.750360
 H   -3.163474    2.437959   -0.699728
}
memory 8.5GB
set_num_threads(2)
psi4_io.set_default_path("/scratch/bdw2292/Psi4-ModifiedRes")
set freeze_core True
E, wfn = energy('wb97x-d/6-311+G*',return_wfn=True)
oeprop(wfn,"WIBERG_LOWDIN_INDICES")
clean()
