molecule { 
0 1
 H    1.215224    0.013103   -0.572074
 H    0.811108    0.717048    0.999293
 C    0.631147   -0.118656    0.334671
 S    1.217835   -1.711283    1.196977
 C    2.890546   -1.289786    1.377180
 N    4.019174   -1.036267    1.502725
 C   -2.266750   -2.045711   -0.919759
 O   -3.272901   -1.707326   -0.270859
 N   -1.089437   -1.381181   -0.868401
 H   -0.336320   -1.671622   -1.468876
 C   -0.853681   -0.256174    0.040004
 H   -1.406022   -0.468240    0.960554
 C   -1.386383    1.079606   -0.514716
 O   -0.663911    2.090090   -0.552114
 N   -2.680372    1.063824   -0.901262
 H   -2.268038   -2.913255   -1.582917
 H   -3.282507    0.282960   -0.680476
 H   -3.078398    1.915858   -1.253877
}
memory 8.5GB
set_num_threads(2)
psi4_io.set_default_path("/scratch/bdw2292/Psi4-ModifiedRes")
set freeze_core True
E, wfn = energy('wb97x-d/6-311+G*',return_wfn=True)
oeprop(wfn,"WIBERG_LOWDIN_INDICES")
clean()
