molecule { 
0 1
 H    1.198778    0.642271   -0.729402
 H    0.739106    0.697656    0.977591
 C    0.610493    0.160022    0.046496
 S    1.264374   -1.612279    0.279848
 C    2.911615   -1.218874    0.653915
 N    4.024412   -0.983890    0.899514
 C   -2.168717   -1.288933   -1.917878
 O   -3.199194   -1.256468   -1.221464
 N   -1.027590   -0.641031   -1.589044
 H   -0.251514   -0.659732   -2.228960
 C   -0.861555    0.078516   -0.323655
 H   -1.414908   -0.481111    0.436635
 C   -1.453651    1.500760   -0.364935
 O   -0.782330    2.483165   -0.006223
 N   -2.739435    1.574400   -0.771565
 H   -2.117198   -1.849790   -2.853415
 H   -3.303886    0.742446   -0.872918
 H   -3.175152    2.478896   -0.799043
}
memory 8.5GB
set_num_threads(2)
psi4_io.set_default_path("/scratch/bdw2292/Psi4-ModifiedRes")
set freeze_core True
E, wfn = energy('wb97x-d/6-311+G*',return_wfn=True)
oeprop(wfn,"WIBERG_LOWDIN_INDICES")
clean()
