molecule { 
0 1
 H    1.319264    0.725948   -0.598351
 H    0.819922    0.710241    1.098520
 C    0.719272    0.207713    0.144703
 S    1.389209   -1.565375    0.321807
 C    3.022427   -1.169978    0.751191
 N    4.126120   -0.933257    1.033333
 C   -1.993531   -1.193891   -1.942540
 O   -3.040581   -1.202461   -1.270597
 N   -0.868996   -0.546080   -1.560719
 H   -0.075354   -0.535458   -2.178882
 C   -0.742325    0.123520   -0.263696
 H   -1.305079   -0.474468    0.459728
 C   -1.353186    1.538143   -0.260051
 O   -0.704068    2.513128    0.155349
 N   -2.630197    1.612087   -0.693326
 H   -1.912401   -1.715884   -2.898242
 H   -3.180471    0.777816   -0.842205
 H   -3.077682    2.511210   -0.693903
}
memory 8.5GB
set_num_threads(2)
psi4_io.set_default_path("/scratch/bdw2292/Psi4-ModifiedRes")
set freeze_core True
E, wfn = energy('wb97x-d/6-311+G*',return_wfn=True)
oeprop(wfn,"WIBERG_LOWDIN_INDICES")
clean()
