molecule { 
0 1
 H   -3.208228   -4.111489   -5.336039
 H   -4.092128   -4.395326   -3.830159
 C   -4.064744   -3.808793   -4.739910
 S   -5.645851   -4.171157   -5.736671
 C   -5.399685   -5.871069   -5.977131
 N   -5.255144   -7.010920   -6.160665
 C   -4.441653   -0.263023   -5.724115
 O   -4.850194    0.376654   -4.738367
 N   -3.990170   -1.536267   -5.650947
 H   -3.615456   -1.970044   -6.477699
 C   -4.036765   -2.323875   -4.416633
 H   -4.948733   -2.032256   -3.886707
 C   -2.850545   -2.031004   -3.477489
 O   -2.163052   -2.954379   -3.009333
 N   -2.659998   -0.726331   -3.185132
 H   -4.417840    0.168169   -6.727085
 H   -3.349827   -0.030716   -3.432605
 H   -1.909493   -0.485682   -2.562554
}
memory 8.5GB
set_num_threads(2)
psi4_io.set_default_path("/scratch/bdw2292/Psi4-ModifiedRes")
set freeze_core True
E, wfn = energy('wb97x-d/6-311+G*',return_wfn=True)
oeprop(wfn,"WIBERG_LOWDIN_INDICES")
clean()
