molecule { 
0 1
 H    1.226192    0.759662   -0.596753
 H    0.777621    0.860386    1.111237
 C    0.663499    0.283912    0.201746
 S    1.389001   -1.451291    0.495939
 C    3.022134   -0.978806    0.839269
 N    4.126185   -0.688994    1.064924
 C   -2.071573   -1.347037   -1.680057
 O   -3.096950   -1.328370   -0.975696
 N   -0.954379   -0.642803   -1.386811
 H   -0.181896   -0.658105   -2.031127
 C   -0.806970    0.130576   -0.151206
 H   -1.331904   -0.420221    0.635182
 C   -1.454650    1.526132   -0.241736
 O   -0.819884    2.547345    0.072442
 N   -2.745622    1.533757   -0.638354
 H   -2.005210   -1.941045   -2.593944
 H   -3.278259    0.677462   -0.702079
 H   -3.216441    2.418989   -0.696559
}
memory 8.5GB
set_num_threads(2)
psi4_io.set_default_path("/scratch/bdw2292/Psi4-ModifiedRes")
set freeze_core True
E, wfn = energy('wb97x-d/6-311+G*',return_wfn=True)
oeprop(wfn,"WIBERG_LOWDIN_INDICES")
clean()
