molecule { 
0 1
 H    1.005460    0.141604   -0.924777
 H    0.590055   -0.196190    0.761556
 C    0.321995   -0.391097   -0.269302
 S    0.508237   -2.256530   -0.597174
 C    2.205439   -2.394288   -0.266455
 N    3.344641   -2.505725   -0.057576
 C   -2.753675   -0.494820   -2.321728
 O   -3.735822   -0.422084   -1.561378
 N   -1.482398   -0.263632   -1.920828
 H   -0.744562   -0.272947   -2.604675
 C   -1.126683   -0.006653   -0.523188
 H   -1.795898   -0.614483    0.093237
 C   -1.339841    1.464065   -0.113664
 O   -0.439358    2.109631    0.449065
 N   -2.569410    1.958219   -0.374782
 H   -2.854964   -0.753078   -3.377879
 H   -3.327487    1.353294   -0.658368
 H   -2.762173    2.907872   -0.110810
}
memory 8.5GB
set_num_threads(2)
psi4_io.set_default_path("/scratch/bdw2292/Psi4-ModifiedRes")
set freeze_core True
E, wfn = energy('wb97x-d/6-311+G*',return_wfn=True)
oeprop(wfn,"WIBERG_LOWDIN_INDICES")
clean()
