molecule { 
0 1
 H    1.220143    0.419655   -0.360773
 H    0.772447    0.708953    1.325636
 C    0.652692    0.038271    0.483875
 S    1.360468   -1.661880    0.962049
 C    2.997806   -1.171597    1.256593
 N    4.104305   -0.868797    1.450976
 C   -2.096563   -1.757617   -1.219331
 O   -3.122885   -1.654525   -0.523045
 N   -0.972870   -1.036971   -1.000376
 H   -0.207306   -1.114810   -1.648518
 C   -0.818846   -0.137804    0.146401
 H   -1.350651   -0.597514    0.984765
 C   -1.454491    1.245224   -0.093778
 O   -0.811103    2.288674    0.110829
 N   -2.744904    1.220893   -0.492506
 H   -2.035319   -2.446038   -2.064688
 H   -3.283803    0.366505   -0.465854
 H   -3.209220    2.098791   -0.642498
}
memory 8.5GB
set_num_threads(2)
psi4_io.set_default_path("/scratch/bdw2292/Psi4-ModifiedRes")
set freeze_core True
E, wfn = energy('wb97x-d/6-311+G*',return_wfn=True)
oeprop(wfn,"WIBERG_LOWDIN_INDICES")
clean()
