molecule { 
0 1
 H    0.289156   -0.876155   -1.782185
 H   -0.237211   -1.017014   -0.098840
 C   -0.507915   -1.218414   -1.127778
 S   -0.692299   -3.100444   -1.343515
 C    0.930122   -3.555472   -0.931473
 N    2.013302   -3.888625   -0.667843
 C   -3.473064   -0.835736   -3.305986
 O   -4.445279   -0.520816   -2.596258
 N   -2.195204   -0.837983   -2.862204
 H   -1.453067   -1.047633   -3.508289
 C   -1.839917   -0.569406   -1.466273
 H   -2.637201   -0.991862   -0.847089
 C   -1.765095    0.937042   -1.149178
 O   -0.770693    1.423299   -0.583907
 N   -2.860334    1.649361   -1.490686
 H   -3.589440   -1.135205   -4.349623
 H   -3.715676    1.191419   -1.773022
 H   -2.865310    2.633070   -1.288282
}
memory 8.5GB
set_num_threads(2)
psi4_io.set_default_path("/scratch/bdw2292/Psi4-ModifiedRes")
set freeze_core True
E, wfn = energy('wb97x-d/6-311+G*',return_wfn=True)
oeprop(wfn,"WIBERG_LOWDIN_INDICES")
clean()
