molecule { 
0 1
 H    1.276403    0.807682   -0.559216
 H    0.850839    0.961136    1.150914
 C    0.733841    0.351093    0.263987
 S    1.495208   -1.359861    0.608575
 C    3.124357   -0.846423    0.909562
 N    4.226452   -0.529710    1.106871
 C   -1.999006   -1.394321   -1.515412
 O   -3.013909   -1.368281   -0.796351
 N   -0.890313   -0.660612   -1.265158
 H   -0.126369   -0.687488   -1.919204
 C   -0.738581    0.159098   -0.060499
 H   -1.241411   -0.372033    0.753373
 C   -1.412875    1.538843   -0.190721
 O   -0.791595    2.581283    0.077149
 N   -2.709370    1.509572   -0.567829
 H   -1.935635   -2.019432   -2.408531
 H   -3.226806    0.642041   -0.592938
 H   -3.197024    2.383592   -0.651230
}
memory 8.5GB
set_num_threads(2)
psi4_io.set_default_path("/scratch/bdw2292/Psi4-ModifiedRes")
set freeze_core True
E, wfn = energy('wb97x-d/6-311+G*',return_wfn=True)
oeprop(wfn,"WIBERG_LOWDIN_INDICES")
clean()
