molecule { 
0 1
 H    1.195370    0.633335   -0.736137
 H    0.735322    0.687330    0.970793
 C    0.605503    0.151503    0.038819
 S    1.254340   -1.622955    0.269640
 C    2.902567   -1.234745    0.644818
 N    4.015966   -1.003380    0.891138
 C   -2.177176   -1.286607   -1.928615
 O   -3.207754   -1.252304   -1.232444
 N   -1.034320   -0.642422   -1.598451
 H   -0.258377   -0.661654   -2.238515
 C   -0.866658    0.074700   -0.331910
 H   -1.421878   -0.484510    0.427311
 C   -1.454714    1.498681   -0.371255
 O   -0.780691    2.478617   -0.010861
 N   -2.740148    1.576572   -0.778215
 H   -2.126976   -1.846141   -2.865017
 H   -3.306869    0.746339   -0.880994
 H   -3.173322    2.482325   -0.804495
}
memory 8.5GB
set_num_threads(2)
psi4_io.set_default_path("/scratch/bdw2292/Psi4-ModifiedRes")
set freeze_core True
E, wfn = energy('wb97x-d/6-311+G*',return_wfn=True)
oeprop(wfn,"WIBERG_LOWDIN_INDICES")
clean()
