molecule { 
0 1
 H    1.253408    0.510084   -0.823378
 H    0.794077    0.334367    0.875565
 C    0.700824   -0.098356   -0.112653
 S    1.474871   -1.836944   -0.083313
 C    3.091839   -1.377694    0.343939
 N    4.185701   -1.095404    0.622547
 C   -1.975823   -1.494747   -2.249629
 O   -3.005037   -1.614444   -1.560919
 N   -0.881400   -0.813066   -1.840157
 H   -0.108014   -0.701608   -2.473868
 C   -0.762894   -0.236353   -0.498655
 H   -1.274590   -0.917636    0.187990
 C   -1.451388    1.137117   -0.377479
 O   -0.848658    2.114732    0.097352
 N   -2.740004    1.169397   -0.780452
 H   -1.887287   -1.937845   -3.243747
 H   -3.246388    0.318379   -0.981479
 H   -3.236811    2.038975   -0.704703
}
memory 8.5GB
set_num_threads(2)
psi4_io.set_default_path("/scratch/bdw2292/Psi4-ModifiedRes")
set freeze_core True
E, wfn = energy('wb97x-d/6-311+G*',return_wfn=True)
oeprop(wfn,"WIBERG_LOWDIN_INDICES")
clean()
