molecule { 
0 1
 C    1.549848   -0.628706   -1.378024
 N    0.938722    0.331241   -0.538528
 C   -0.389316    0.098130   -0.028948
 C   -0.643758    0.196396    1.363952
 C    1.542983    1.660143   -0.276236
 C   -1.478332   -0.146302   -0.906347
 C   -1.946481    0.027076    1.854824
 C   -3.012114   -0.228684    0.982277
 C   -2.772657   -0.313123   -0.395354
 H    0.170923    0.400307    2.061950
 H   -1.309614   -0.213423   -1.982402
 C    3.002979   -0.379564   -1.794463
 O    0.963071   -1.644665   -1.745871
 H    1.980307    2.079191   -1.183179
 H    0.790377    2.368050    0.075179
 H    2.316891    1.578376    0.488213
 H   -2.125993    0.100018    2.929018
 H   -3.598770   -0.506431   -1.081826
 H    3.053512    0.370737   -2.583640
 H    3.617189   -0.064035   -0.950891
 H   -4.023214   -0.359702    1.372710
 H    3.430126   -1.303732   -2.186147
}
set optking { 
  frozen_dihedral = ("
    1 2 3 4
    12 1 2 3
  ")
}
set {
  geom_maxiter 400
  g_convergence GAU_LOOSE
  dynamic_level 1
}
memory 8.166666666666666GB
set_num_threads(2)
psi4_io.set_default_path("/scratch/bdw2292/Psi4-3_24_Index_0-farH_in17")
for _ in range(1):
  try:
    set opt_coordinates both
    optimize('wb97x-d/6-311G')
    break
  except OptimizationConvergenceError:
    break
  else:
    try:
      set opt_coordinates cartesian
      optimize('wb97x-d/6-311G')
      break
    except OptimizationConvergenceError:
      pass
clean()
