molecule { 
0 1
 C    1.873313    1.145312   -0.272843
 N    0.882566    0.220170   -0.721201
 C   -0.442110    0.155820   -0.110920
 C   -1.541974   -0.384568   -0.842425
 C    1.246082   -0.895398   -1.644762
 C   -0.670160    0.505840    1.251989
 C   -2.804004   -0.516458   -0.245380
 C   -3.010824   -0.137775    1.084513
 C   -1.940572    0.369294    1.827801
 H   -1.427235   -0.692490   -1.883799
 H    0.143127    0.886923    1.866838
 C    3.187772    1.207402   -1.061708
 O    1.698552    1.921068    0.666376
 H    1.006048   -0.623620   -2.673742
 H    2.304266   -1.148682   -1.587709
 H    0.702461   -1.805864   -1.387205
 H   -3.631100   -0.921011   -0.831774
 H   -2.089463    0.658708    2.869530
 H    3.869960    0.422585   -0.734307
 H    3.024037    1.127861   -2.136649
 H   -3.997942   -0.240054    1.539359
 H    3.673884    2.166232   -0.875720
}
set optking { 
  frozen_dihedral = ("
    1 2 3 4
    12 1 2 3
  ")
}
set {
  geom_maxiter 400
  g_convergence GAU_LOOSE
  dynamic_level 1
}
memory 8.166666666666666GB
set_num_threads(2)
psi4_io.set_default_path("/scratch/bdw2292/Psi4-3_24_Index_0-farH_in17")
for _ in range(1):
  try:
    set opt_coordinates both
    optimize('wb97x-d/6-311G')
    break
  except OptimizationConvergenceError:
    break
  else:
    try:
      set opt_coordinates cartesian
      optimize('wb97x-d/6-311G')
      break
    except OptimizationConvergenceError:
      pass
clean()
