molecule { 
0 1
 C    1.953395    0.659368    0.028702
 N    0.943245   -0.041757   -0.615293
 C   -0.379633   -0.200762   -0.079159
 C   -1.271549   -1.079503   -0.718167
 C    1.191052   -0.654905   -1.924799
 C   -0.844957    0.514740    1.037922
 C   -2.576425   -1.235963   -0.259287
 C   -3.030694   -0.522707    0.843772
 C   -2.152993    0.348120    1.482364
 H   -0.966255   -1.663869   -1.570721
 H   -0.181488    1.178343    1.559025
 C    3.272467    0.848726   -0.691451
 O    1.822281    1.145445    1.165208
 H    0.424257   -0.347536   -2.635749
 H    2.149364   -0.345601   -2.317497
 H    1.191684   -1.744116   -1.854288
 H   -3.234578   -1.923299   -0.773735
 H   -2.482051    0.913042    2.344147
 H    3.774779   -0.097115   -0.898602
 H    3.155087    1.391350   -1.630526
 H   -4.044476   -0.643996    1.199107
 H    3.901330    1.435316   -0.029628
}
memory 8.166666666666666GB
set_num_threads(2)
psi4_io.set_default_path("/scratch/bdw2292/Psi4-3_24_Index_0-farH_in17")
set freeze_core True
E, wfn = energy('wb97x-d/6-311+G*',return_wfn=True)
oeprop(wfn,"WIBERG_LOWDIN_INDICES")
clean()
