molecule { 
0 1
 C    1.938008    0.603293   -0.023826
 N    0.908345   -0.043984   -0.683190
 C   -0.387752   -0.180870   -0.086906
 C   -1.096611   -1.373684   -0.259459
 C    1.114259   -0.638653   -2.007944
 C   -0.976694    0.869049    0.624190
 C   -2.379614   -1.513377    0.263929
 C   -2.964414   -0.468703    0.973482
 C   -2.254588    0.717448    1.152078
 H   -0.642232   -2.201405   -0.786442
 H   -0.428745    1.782413    0.782968
 C    3.232388    0.790348   -0.780141
 O    1.815534    1.043126    1.131614
 H    0.150996   -0.746600   -2.499422
 H    1.729824    0.007134   -2.629599
 H    1.589548   -1.620840   -1.948435
 H   -2.914202   -2.443055    0.123554
 H   -2.696914    1.535311    1.704249
 H    3.642894   -0.149517   -1.150508
 H    3.097421    1.459320   -1.632614
 H   -3.957775   -0.577998    1.386124
 H    3.942985    1.241630   -0.095229
}
memory 8.166666666666666GB
set_num_threads(2)
psi4_io.set_default_path("/scratch/bdw2292/Psi4-3_24_Index_0-farH_in17")
set freeze_core True
E, wfn = energy('wb97x-d/6-311+G*',return_wfn=True)
oeprop(wfn,"WIBERG_LOWDIN_INDICES")
clean()
