molecule { 
0 1
 C    2.005840    0.860161   -0.056429
 N    0.927170    0.127011   -0.657039
 C   -0.406754    0.032582   -0.036700
 C   -1.401415   -0.853203   -0.564599
 C    1.089771   -0.506388   -2.004219
 C   -0.806169    0.860330    1.056825
 C   -2.686817   -0.914478   -0.005254
 C   -3.037864   -0.106555    1.078590
 C   -2.093646    0.778281    1.603565
 H   -1.192370   -1.513994   -1.406779
 H   -0.115698    1.576707    1.491875
 C    3.317374    0.986328   -0.841533
 O    1.938080    1.382999    1.055930
 H    0.270372   -0.211829   -2.661973
 H    2.005667   -0.220698   -2.514621
 H    1.096770   -1.593081   -1.906134
 H   -3.418755   -1.605901   -0.427801
 H   -2.357016    1.418897    2.447362
 H    3.743898    0.007363   -1.061784
 H    3.171334    1.550184   -1.763228
 H   -4.039342   -0.163631    1.508959
 H    4.046252    1.530209   -0.238751
}
set optking { 
  frozen_dihedral = ("
    1 2 3 4
    12 1 2 3
  ")
}
set {
  geom_maxiter 400
  g_convergence GAU_LOOSE
  dynamic_level 1
}
memory 8.166666666666666GB
set_num_threads(2)
psi4_io.set_default_path("/scratch/bdw2292/Psi4-3_24_Index_0-farH_in17")
for _ in range(1):
  try:
    set opt_coordinates both
    optimize('wb97x-d/6-311G')
    break
  except OptimizationConvergenceError:
    break
  else:
    try:
      set opt_coordinates cartesian
      optimize('wb97x-d/6-311G')
      break
    except OptimizationConvergenceError:
      pass
clean()
