molecule { 
0 1
 C    1.929927   -0.644557   -0.335160
 N    0.931646    0.293075   -0.562148
 C   -0.386231    0.204899    0.002037
 C   -0.741796   -0.741868    0.978429
 C    1.201769    1.468123   -1.398229
 C   -1.373270    1.107184   -0.432073
 C   -2.031010   -0.758810    1.502241
 C   -2.999652    0.144184    1.075205
 C   -2.658638    1.075287    0.101085
 H   -0.018406   -1.462267    1.309624
 H   -1.164847    1.840161   -1.194150
 C    3.310465   -0.379986   -0.899954
 O    1.746649   -1.685179    0.319528
 H    0.643365    1.419683   -2.334848
 H    0.924506    2.379446   -0.868407
 H    2.253405    1.533580   -1.639228
 H   -2.273075   -1.497111    2.254840
 H   -3.392526    1.785184   -0.256306
 H    3.313852   -0.322338   -1.989296
 H    3.747783    0.537796   -0.502959
 H   -3.998145    0.120027    1.488925
 H    3.930877   -1.217344   -0.596327
}
memory 8.166666666666666GB
set_num_threads(2)
psi4_io.set_default_path("/scratch/bdw2292/Psi4-3_24_Index_0-farH_in17")
set freeze_core True
E, wfn = energy('wb97x-d/6-311+G*',return_wfn=True)
oeprop(wfn,"WIBERG_LOWDIN_INDICES")
clean()
