molecule { 
0 1
 C    1.988527    0.243296    0.006906
 N    0.858910    0.087804   -0.767485
 C   -0.421121   -0.063208   -0.132383
 C   -1.093395   -1.281452   -0.210352
 C    0.909568    0.078706   -2.231874
 C   -0.993705    1.007162    0.551401
 C   -2.349917   -1.421893    0.374343
 C   -2.926054   -0.351468    1.054758
 C   -2.242694    0.860143    1.147199
 H   -0.626382   -2.113335   -0.720343
 H   -0.450504    1.937952    0.626453
 C    3.280037    0.507615   -0.728152
 O    1.945112    0.198189    1.247940
 H   -0.101861   -0.046952   -2.608075
 H    1.302935    1.018409   -2.625229
 H    1.520325   -0.742108   -2.612863
 H   -2.870195   -2.367732    0.310105
 H   -2.681640    1.690081    1.683714
 H    3.528792   -0.292408   -1.427443
 H    3.228423    1.439698   -1.294556
 H   -3.897602   -0.462385    1.516418
 H    4.069845    0.587365    0.011969
}
memory 8.166666666666666GB
set_num_threads(2)
psi4_io.set_default_path("/scratch/bdw2292/Psi4-3_24_Index_0-farH_in17")
set freeze_core True
E, wfn = energy('wb97x-d/6-311+G*',return_wfn=True)
oeprop(wfn,"WIBERG_LOWDIN_INDICES")
clean()
