molecule { 
0 1
 C    2.007603   -0.370019   -0.203825
 N    0.869461    0.273845   -0.663234
 C   -0.419343    0.121410   -0.052071
 C   -0.763990   -0.992819    0.727329
 C    0.949446    1.173365   -1.820265
 C   -1.372195    1.137756   -0.225657
 C   -2.035045   -1.084496    1.287936
 C   -2.982295   -0.082482    1.098337
 C   -2.639307    1.031565    0.339032
 H   -0.039639   -1.766411    0.902020
 H   -1.131577    2.029540   -0.783868
 C    3.323114   -0.030400   -0.869912
 O    1.992797   -1.187897    0.731684
 H    0.043867    1.074331   -2.414844
 H    1.063789    2.218134   -1.521118
 H    1.785478    0.904245   -2.455248
 H   -2.279832   -1.955077    1.881276
 H   -3.352585    1.830769    0.188926
 H    3.376078   -0.423526   -1.887220
 H    3.507748    1.043411   -0.908290
 H   -3.966049   -0.164903    1.538989
 H    4.102795   -0.504988   -0.282454
}
memory 8.166666666666666GB
set_num_threads(2)
psi4_io.set_default_path("/scratch/bdw2292/Psi4-3_24_Index_0-farH_in17")
set freeze_core True
E, wfn = energy('wb97x-d/6-311+G*',return_wfn=True)
oeprop(wfn,"WIBERG_LOWDIN_INDICES")
clean()
