molecule { 
0 1
 C    1.914775   -0.564787   -0.304886
 N    0.800622    0.076264   -0.814299
 C   -0.407711    0.154858   -0.046624
 C   -0.985148   -0.994572    0.496328
 C    0.859955    0.833660   -2.067823
 C   -1.037001    1.390262    0.121060
 C   -2.177587   -0.900682    1.206838
 C   -2.811592    0.330445    1.368692
 C   -2.238119    1.475196    0.821062
 H   -0.488673   -1.944560    0.380864
 H   -0.586180    2.285268   -0.286414
 C    3.177755   -0.502443   -1.130014
 O    1.893180   -1.169784    0.780192
 H   -0.153449    0.990399   -2.427131
 H    1.340712    1.807807   -1.944165
 H    1.400183    0.275930   -2.829452
 H   -2.613917   -1.794836    1.630837
 H   -2.717836    2.436914    0.944406
 H    3.075753   -1.070974   -2.056188
 H    3.453085    0.519039   -1.391872
 H   -3.740867    0.396728    1.917826
 H    3.971831   -0.945418   -0.539083
}
memory 8.166666666666666GB
set_num_threads(2)
psi4_io.set_default_path("/scratch/bdw2292/Psi4-3_24_Index_0-farH_in17")
set freeze_core True
E, wfn = energy('wb97x-d/6-311+G*',return_wfn=True)
oeprop(wfn,"WIBERG_LOWDIN_INDICES")
clean()
