molecule { 
0 1
 C    1.839817   -0.707381   -0.683703
 N    0.870799    0.331640   -0.707318
 C   -0.429797    0.150905   -0.092297
 C   -0.588560   -0.547982    1.136561
 C    1.199747    1.697587   -1.195746
 C   -1.597542    0.637524   -0.743233
 C   -1.861651   -0.726444    1.694889
 C   -2.999650   -0.226110    1.051426
 C   -2.861714    0.451332   -0.165656
 H    0.281185   -0.953723    1.654058
 H   -1.525510    1.156520   -1.701313
 C    3.226933   -0.398748   -1.257923
 O    1.610829   -1.814804   -0.199616
 H    1.164266    1.724729   -2.285851
 H    0.492313    2.433630   -0.810671
 H    2.189294    2.011671   -0.863420
 H   -1.960665   -1.259024    2.642465
 H   -3.744101    0.841578   -0.676412
 H    3.163547    0.084934   -2.232707
 H    3.795511    0.229865   -0.572486
 H   -3.987539   -0.366080    1.494274
 H    3.779168   -1.330321   -1.389058
}
set optking { 
  frozen_dihedral = ("
    1 2 3 4
    12 1 2 3
  ")
}
set {
  geom_maxiter 400
  g_convergence GAU_LOOSE
  dynamic_level 1
}
memory 8.166666666666666GB
set_num_threads(2)
psi4_io.set_default_path("/scratch/bdw2292/Psi4-3_24_Index_0-farH_in17")
for _ in range(1):
  try:
    set opt_coordinates both
    optimize('wb97x-d/6-311G')
    break
  except OptimizationConvergenceError:
    break
  else:
    try:
      set opt_coordinates cartesian
      optimize('wb97x-d/6-311G')
      break
    except OptimizationConvergenceError:
      pass
clean()
