molecule { 
0 1
 C    2.045207   -0.389063   -0.199391
 N    0.896829    0.325950   -0.658863
 C   -0.433925    0.116272   -0.094024
 C   -0.805739   -1.083371    0.579880
 C    0.958161    1.121173   -1.921337
 C   -1.395306    1.170094   -0.133989
 C   -2.082460   -1.229514    1.139650
 C   -3.019078   -0.194027    1.062569
 C   -2.668449    1.001972    0.429163
 H   -0.102064   -1.908753    0.664543
 H   -1.157451    2.129919   -0.596650
 C    3.403137    0.008929   -0.794276
 O    2.002287   -1.257527    0.671393
 H    0.009224    1.076329   -2.458023
 H    1.183863    2.164773   -1.696833
 H    1.712370    0.738418   -2.608510
 H   -2.344306   -2.164962    1.637304
 H   -3.389136    1.819921    0.369799
 H    3.562758   -0.487426   -1.751740
 H    3.494253    1.087811   -0.921581
 H   -4.012953   -0.316757    1.496877
 H    4.199458   -0.308868   -0.119698
}
set optking { 
  frozen_dihedral = ("
    1 2 3 4
    12 1 2 3
  ")
}
set {
  geom_maxiter 400
  g_convergence GAU_LOOSE
  dynamic_level 1
}
memory 8.166666666666666GB
set_num_threads(2)
psi4_io.set_default_path("/scratch/bdw2292/Psi4-3_24_Index_0-farH_in17")
for _ in range(1):
  try:
    set opt_coordinates both
    optimize('wb97x-d/6-311G')
    break
  except OptimizationConvergenceError:
    break
  else:
    try:
      set opt_coordinates cartesian
      optimize('wb97x-d/6-311G')
      break
    except OptimizationConvergenceError:
      pass
clean()
