molecule { 
0 1
 C    1.915639    0.730119   -0.115842
 N    0.975624   -0.202800   -0.524506
 C   -0.374915   -0.212874   -0.041580
 C   -1.365541   -0.830941   -0.820024
 C    1.332946   -1.226434   -1.513262
 C   -0.738303    0.323430    1.202795
 C   -2.680895   -0.905927   -0.372013
 C   -3.037834   -0.370284    0.861107
 C   -2.058306    0.243111    1.637184
 H   -1.129136   -1.236191   -1.792146
 H    0.000649    0.814815    1.808202
 C    3.271180    0.702112   -0.787292
 O    1.683773    1.587379    0.753586
 H    1.053409   -0.933135   -2.528016
 H    2.399079   -1.419487   -1.493034
 H    0.828015   -2.157181   -1.264249
 H   -3.424896   -1.381722   -0.996643
 H   -2.315926    0.665509    2.599039
 H    3.850844   -0.176034   -0.495474
 H    3.199217    0.718015   -1.874984
 H   -4.059575   -0.428039    1.209728
 H    3.804222    1.586414   -0.452819
}
memory 8.166666666666666GB
set_num_threads(2)
psi4_io.set_default_path("/scratch/bdw2292/Psi4-3_24_Index_0-farH_in17")
set freeze_core True
E, wfn = energy('wb97x-d/6-311+G*',return_wfn=True)
oeprop(wfn,"WIBERG_LOWDIN_INDICES")
clean()
