molecule { 
0 1
 C    2.275651    0.088871    0.359781
 N    1.093253   -0.331158    0.868039
 C   -0.131943   -0.112966    0.189614
 C   -0.192337   -0.197804   -1.197850
 C    1.099308   -1.090298    2.102600
 C   -1.274520    0.252966    0.896838
 C   -2.460872    0.492909    0.229025
 C   -2.522214    0.388033   -1.149955
 C   -1.382718    0.048361   -1.857763
 H   -1.241734    0.374678    1.969454
 H    0.689736   -0.460049   -1.757432
 O    2.461345    0.644968   -0.693139
 H    0.114013   -1.085800    2.557583
 H    1.817573   -0.667868    2.805385
 H    1.377846   -2.130339    1.904677
 H   -3.338982    0.774823    0.791322
 H   -1.416969   -0.027274   -2.934276
 H   -3.450160    0.577939   -1.667859
 H    3.107402   -0.141206    1.054541
}
memory 20GB
set_num_threads(5)
psi4_io.set_default_path("/scratch/liuchw/Psi4-3_24_Index_0-farH_in17")
set freeze_core True
E, wfn = energy('wb97x-d/6-311+G*',return_wfn=True)
oeprop(wfn,"WIBERG_LOWDIN_INDICES")
clean()
