molecule { 
0 1
 C    2.280058    0.142530    0.413007
 N    1.096362   -0.344355    0.857446
 C   -0.116088   -0.128361    0.163782
 C   -0.141533   -0.130154   -1.227772
 C    1.063558   -0.995985    2.151822
 C   -1.295281    0.111716    0.865163
 C   -2.480269    0.320504    0.183553
 C   -2.504870    0.306194   -1.200129
 C   -1.330676    0.086181   -1.899383
 H   -1.292565    0.155444    1.943762
 H    0.767055   -0.300272   -1.780163
 O    2.479737    0.767065   -0.597767
 H    1.165413   -0.279778    2.970645
 H    1.869865   -1.728807    2.212399
 H    0.123028   -1.531875    2.261354
 H   -3.387420    0.503717    0.740585
 H   -1.337625    0.079052   -2.979027
 H   -3.431753    0.470830   -1.728478
 H    3.096686   -0.104858    1.119788
}
memory 20GB
set_num_threads(5)
psi4_io.set_default_path("/scratch/liuchw/Psi4-3_24_Index_0-farH_in17")
set freeze_core True
E, wfn = energy('wb97x-d/6-311+G*',return_wfn=True)
oeprop(wfn,"WIBERG_LOWDIN_INDICES")
clean()
