molecule { 
0 1
 C    2.299118    0.100824    0.382020
 N    1.108595   -0.341100    0.852028
 C   -0.107163   -0.102205    0.168091
 C   -0.150085   -0.130533   -1.223145
 C    1.044661   -1.000550    2.137864
 C   -1.280804    0.134827    0.878567
 C   -2.470146    0.350410    0.206035
 C   -2.508001    0.330535   -1.176974
 C   -1.343222    0.090774   -1.885580
 H   -1.275054    0.165071    1.956789
 H    0.750778   -0.316387   -1.783011
 O    2.500907    0.698333   -0.644536
 H    0.695988   -0.323159    2.922432
 H    2.038918   -1.348646    2.414281
 H    0.368835   -1.854089    2.080588
 H   -3.371907    0.536715    0.770732
 H   -1.361540    0.067650   -2.964851
 H   -3.438519    0.499190   -1.697626
 H    3.122323   -0.158876    1.076882
}
memory 20GB
set_num_threads(5)
psi4_io.set_default_path("/scratch/liuchw/Psi4-3_24_Index_0-farH_in17")
set freeze_core True
E, wfn = energy('wb97x-d/6-311+G*',return_wfn=True)
oeprop(wfn,"WIBERG_LOWDIN_INDICES")
clean()
