molecule { 
0 1
 C    2.195317    0.438753    0.584089
 N    1.056941   -0.189348    0.961591
 C   -0.132943   -0.103092    0.195966
 C   -0.075288   -0.089025   -1.194133
 C    1.087987   -1.035833    2.137562
 C   -1.367895    0.035128    0.824653
 C   -2.523377    0.148921    0.074380
 C   -2.464177    0.142750   -1.308656
 C   -1.236264    0.029549   -1.936530
 H   -1.434961    0.077213    1.901731
 H    0.876000   -0.175126   -1.691720
 O    2.371364    1.095205   -0.411104
 H    1.526444   -2.008310    1.893778
 H    0.082819   -1.199638    2.513799
 H    1.683596   -0.570969    2.923458
 H   -3.473977    0.254771    0.576247
 H   -1.177558    0.032387   -3.014621
 H   -3.368645    0.233636   -1.890925
 H    2.998299    0.281813    1.331019
}
memory 20GB
set_num_threads(5)
psi4_io.set_default_path("/scratch/liuchw/Psi4-3_24_Index_0-farH_in17")
set freeze_core True
E, wfn = energy('wb97x-d/6-311+G*',return_wfn=True)
oeprop(wfn,"WIBERG_LOWDIN_INDICES")
clean()
