molecule { 
0 1
 C    2.246427    0.254784    0.470541
 N    1.077559   -0.264573    0.914539
 C   -0.131884   -0.108825    0.192157
 C   -0.129583   -0.148927   -1.198732
 C    1.089523   -1.058774    2.126974
 C   -1.326252    0.147746    0.860695
 C   -2.498553    0.326634    0.150082
 C   -2.495403    0.269742   -1.232959
 C   -1.306198    0.037483   -1.901425
 H   -1.347640    0.231504    1.937183
 H    0.791007   -0.328453   -1.728074
 O    2.434316    0.859195   -0.554985
 H    1.740049   -0.603978    2.873729
 H    1.448548   -2.070306    1.913431
 H    0.087475   -1.138962    2.537429
 H   -3.417338    0.523537    0.682806
 H   -1.290264   -0.000698   -2.980312
 H   -3.412406    0.413275   -1.784172
 H    3.064298    0.058385    1.191681
}
memory 20GB
set_num_threads(5)
psi4_io.set_default_path("/scratch/liuchw/Psi4-3_24_Index_0-farH_in17")
set freeze_core True
E, wfn = energy('wb97x-d/6-311+G*',return_wfn=True)
oeprop(wfn,"WIBERG_LOWDIN_INDICES")
clean()
