molecule { 
0 1
 C    2.290132   -0.509939    0.290938
 N    1.078134   -0.406052    0.889753
 C   -0.120894   -0.172117    0.168983
 C   -0.093152    0.426977   -1.089260
 C    1.035146   -0.348509    2.337043
 C   -1.353046   -0.564156    0.689994
 C   -2.519300   -0.349092   -0.021353
 C   -2.484818    0.255615   -1.264899
 C   -1.264590    0.638627   -1.792519
 H   -1.425226   -1.054975    1.647410
 H    0.844858    0.731625   -1.519560
 O    2.544831   -0.461109   -0.885909
 H    1.970876   -0.722709    2.747095
 H    0.218332   -0.944914    2.735963
 H    0.892542    0.684573    2.669062
 H   -3.461517   -0.663157    0.403468
 H   -1.218046    1.110402   -2.762628
 H   -3.397834    0.422994   -1.815837
 H    3.087255   -0.675297    1.042840
}
memory 20GB
set_num_threads(5)
psi4_io.set_default_path("/scratch/liuchw/Psi4-3_24_Index_0-farH_in17")
set freeze_core True
E, wfn = energy('wb97x-d/6-311+G*',return_wfn=True)
oeprop(wfn,"WIBERG_LOWDIN_INDICES")
clean()
