molecule { 
0 1
 C    2.150956    0.552798    0.683500
 N    1.103177   -0.265330    0.911290
 C   -0.108036   -0.080830    0.185016
 C   -0.124657   -0.319280   -1.182250
 C    1.096134   -1.232404    1.983060
 C   -1.272302    0.301422    0.837776
 C   -2.444967    0.452293    0.119745
 C   -2.461455    0.221520   -1.245444
 C   -1.299581   -0.159538   -1.894779
 H   -1.258958    0.494199    1.900205
 H    0.787592   -0.608632   -1.680511
 O    2.188140    1.443682   -0.127445
 H    2.118776   -1.424615    2.303373
 H    0.651669   -2.163813    1.628640
 H    0.521375   -0.878088    2.843060
 H   -3.347708    0.756402    0.628639
 H   -1.308281   -0.339222   -2.959400
 H   -3.378527    0.341895   -1.802405
 H    3.010337    0.306328    1.338516
}
memory 20GB
set_num_threads(5)
psi4_io.set_default_path("/scratch/liuchw/Psi4-3_24_Index_0-farH_in17")
set freeze_core True
E, wfn = energy('wb97x-d/6-311+G*',return_wfn=True)
oeprop(wfn,"WIBERG_LOWDIN_INDICES")
clean()
