molecule { 
0 1
 C    1.657043    0.839643    1.624615
 N    1.060153   -0.189574    0.974365
 C   -0.129993   -0.033585    0.218682
 C   -0.455554   -0.932163   -0.795833
 C    1.567406   -1.527416    1.201873
 C   -1.021441    1.000861    0.499712
 C   -2.188177    1.140408   -0.228717
 C   -2.499630    0.250471   -1.241312
 C   -1.625214   -0.784557   -1.518964
 H   -0.799871    1.703331    1.284192
 H    0.203971   -1.743999   -1.057632
 O    1.324594    1.997849    1.644915
 H    2.570019   -1.473216    1.620798
 H    1.607087   -2.101082    0.279173
 H    0.919527   -2.061650    1.903810
 H   -2.862348    1.950038    0.007267
 H   -1.851172   -1.489591   -2.305524
 H   -3.412711    0.359872   -1.806466
 H    2.559997    0.493147    2.165634
}
memory 20GB
set_num_threads(5)
psi4_io.set_default_path("/scratch/liuchw/Psi4-3_24_Index_0-farH_in17")
set freeze_core True
E, wfn = energy('wb97x-d/6-311+G*',return_wfn=True)
oeprop(wfn,"WIBERG_LOWDIN_INDICES")
clean()
