molecule { 
0 1
 C    1.435413    0.688461    1.987006
 N    0.994588   -0.203880    1.064033
 C   -0.189455   -0.050498    0.306088
 C   -0.645866   -1.084845   -0.512819
 C    1.768212   -1.417438    0.892296
 C   -0.904977    1.147711    0.311365
 C   -2.036168    1.296889   -0.468562
 C   -2.481471    0.266990   -1.278217
 C   -1.780023   -0.924191   -1.288838
 H   -0.579453    1.965609    0.929324
 H   -0.152319   -2.042235   -0.539338
 O    0.953124    1.746440    2.304477
 H    2.768978   -1.273524    1.294263
 H    1.848435   -1.668978   -0.164460
 H    1.299462   -2.256907    1.414512
 H   -2.570258    2.235018   -0.442908
 H   -2.112388   -1.744209   -1.908642
 H   -3.362776    0.388931   -1.889358
 H    2.370626    0.329443    2.460366
}
memory 20GB
set_num_threads(5)
psi4_io.set_default_path("/scratch/liuchw/Psi4-3_24_Index_0-farH_in17")
set freeze_core True
E, wfn = energy('wb97x-d/6-311+G*',return_wfn=True)
oeprop(wfn,"WIBERG_LOWDIN_INDICES")
clean()
