molecule { 
0 1
 O    0.672717    0.012445    0.004286
 C   -0.742467    0.037373    0.009533
 H   -1.103739   -0.721194    0.716868
 H   -1.114694   -0.124428   -1.011462
 H   -1.055496    1.033926    0.352650
 H    0.979578    0.304477   -0.860676
}
set optking { 
  frozen_dihedral = ("
  ")
}
set {
  geom_maxiter 3
  g_convergence GAU_LOOSE
}
memory 100GB
set_num_threads(8)
psi4_io.set_default_path("/scratch/bdw2292/Psi4-methanol")
for _ in range(1):
  try:
    optimize('wb97x-d/6-31G*')
    break
  except OptimizationConvergenceError:
    try:
      set opt_coordinates cartesian
      optimize('wb97x-d/6-31G*')
      break
    except OptimizationConvergenceError:
      pass
clean()
