molecule { 
0 1
 O    0.673257   -0.050328   -0.011119
 C   -0.741898   -0.022551   -0.003837
 H   -1.102730   -0.784601    0.700073
 H   -1.103096   -0.179902   -1.029301
 H   -1.065473    0.969542    0.342912
 H    0.994989    0.840974   -0.182935
}
set {
 e_convergence 10 
 d_convergence 10 
}
memory 100GB
set_num_threads(8)
psi4_io.set_default_path("/scratch/bdw2292/Psi4-methanol")
set freeze_core True
E, wfn = energy('wb97x-d/6-311+G*',return_wfn=True)
oeprop(wfn,"WIBERG_LOWDIN_INDICES")
clean()
