molecule { 
0 1
 O    0.673292   -0.047332   -0.020557
 C   -0.741853   -0.019120   -0.013121
 H   -1.106115   -0.778345    0.692353
 H   -1.099943   -0.179440   -1.039025
 H   -1.065079    0.974471    0.329638
 H    0.993833    0.544571    0.668178
}
set {
 e_convergence 10 
 d_convergence 10 
}
memory 100GB
set_num_threads(8)
psi4_io.set_default_path("/scratch/bdw2292/Psi4-methanol")
set freeze_core True
E, wfn = energy('wb97x-d/6-311+G*',return_wfn=True)
oeprop(wfn,"WIBERG_LOWDIN_INDICES")
clean()
