molecule { 
0 1
 O    0.673657    0.003869   -0.031286
 C   -0.741393    0.030718   -0.020427
 H   -1.116243   -0.729499    0.678634
 H   -1.102429   -0.122692   -1.046346
 H   -1.051077    1.025763    0.330170
 H    0.978832   -0.305899    0.828033
}
set {
 e_convergence 10 
 d_convergence 10 
}
memory 100GB
set_num_threads(8)
psi4_io.set_default_path("/scratch/bdw2292/Psi4-methanol")
set freeze_core True
E, wfn = energy('wb97x-d/6-311+G*',return_wfn=True)
oeprop(wfn,"WIBERG_LOWDIN_INDICES")
clean()
