molecule { 
0 1
 O    0.672599    0.010576    0.004247
 C   -0.742416    0.035933    0.009708
 H   -1.106162   -0.720624    0.718197
 H   -1.114005   -0.126372   -1.011406
 H   -1.052489    1.033825    0.351153
 H    0.962973   -0.595539   -0.685599
}
set optking { 
  frozen_dihedral = ("
  ")
}
set {
  geom_maxiter 3
  g_convergence GAU_LOOSE
}
memory 100GB
set_num_threads(8)
psi4_io.set_default_path("/scratch/bdw2292/Psi4-methanol")
for _ in range(1):
  try:
    optimize('wb97x-d/6-31G*')
    break
  except OptimizationConvergenceError:
    try:
      set opt_coordinates cartesian
      optimize('wb97x-d/6-31G*')
      break
    except OptimizationConvergenceError:
      pass
clean()
