molecule { 
0 1
 O    0.672465    0.011810    0.004549
 C   -0.742719    0.039402    0.012398
 H   -1.104414   -0.720558    0.718000
 H   -1.103996   -0.120482   -1.012581
 H   -1.065678    1.032643    0.357008
 H    0.994042    0.902785   -0.169574
}
set optking { 
  frozen_dihedral = ("
  ")
}
set {
  geom_maxiter 3
  g_convergence GAU_LOOSE
}
memory 100GB
set_num_threads(8)
psi4_io.set_default_path("/scratch/bdw2292/Psi4-methanol")
for _ in range(1):
  try:
    optimize('wb97x-d/6-31G*')
    break
  except OptimizationConvergenceError:
    try:
      set opt_coordinates cartesian
      optimize('wb97x-d/6-31G*')
      break
    except OptimizationConvergenceError:
      pass
clean()
