molecule { 
0 1
 O    0.672301    0.010048    0.005612
 C   -0.742782    0.035093    0.014062
 H   -1.117368   -0.725012    0.713493
 H   -1.102547   -0.119906   -1.011989
 H   -1.054274    1.030092    0.363158
 H    0.976470   -0.298416    0.865764
}
set optking { 
  frozen_dihedral = ("
  ")
}
set {
  geom_maxiter 3
  g_convergence GAU_LOOSE
}
memory 100GB
set_num_threads(8)
psi4_io.set_default_path("/scratch/bdw2292/Psi4-methanol")
for _ in range(1):
  try:
    optimize('wb97x-d/6-31G*')
    break
  except OptimizationConvergenceError:
    try:
      set opt_coordinates cartesian
      optimize('wb97x-d/6-31G*')
      break
    except OptimizationConvergenceError:
      pass
clean()
