molecule { 
0 1
 O    0.672417    0.011854    0.004375
 C   -0.742388    0.038397    0.010951
 H   -1.103958   -0.720811    0.717407
 H   -1.108213   -0.122488   -1.012417
 H   -1.059001    1.033720    0.355046
 H    0.985044    0.696928   -0.596261
}
set optking { 
  frozen_dihedral = ("
  ")
}
set {
  geom_maxiter 3
  g_convergence GAU_LOOSE
}
memory 100GB
set_num_threads(8)
psi4_io.set_default_path("/scratch/bdw2292/Psi4-methanol")
for _ in range(1):
  try:
    optimize('wb97x-d/6-31G*')
    break
  except OptimizationConvergenceError:
    try:
      set opt_coordinates cartesian
      optimize('wb97x-d/6-31G*')
      break
    except OptimizationConvergenceError:
      pass
clean()
