molecule { 
0 1
 O    0.673501   -0.023448   -0.035036
 C   -0.741240    0.003313   -0.027158
 H   -1.109684   -0.757531    0.674547
 H   -1.100395   -0.153041   -1.053221
 H   -1.056954    0.997848    0.320086
 H    0.983861    0.140527    0.861967
}
set {
 e_convergence 10 
 d_convergence 10 
}
memory 100GB
set_num_threads(8)
psi4_io.set_default_path("/scratch/bdw2292/Psi4-methanol")
set freeze_core True
E, wfn = energy('wb97x-d/6-311+G*',return_wfn=True)
oeprop(wfn,"WIBERG_LOWDIN_INDICES")
clean()
