molecule { 
0 1
 O    0.672837    0.011662    0.003870
 C   -0.742642    0.036558    0.008858
 H   -1.104219   -0.721216    0.717090
 H   -1.118359   -0.125291   -1.010753
 H   -1.053621    1.033878    0.351296
 H    0.973404   -0.168690   -0.893062
}
set optking { 
  frozen_dihedral = ("
  ")
}
set {
  geom_maxiter 3
  g_convergence GAU_LOOSE
}
memory 100GB
set_num_threads(8)
psi4_io.set_default_path("/scratch/bdw2292/Psi4-methanol")
for _ in range(1):
  try:
    optimize('wb97x-d/6-31G*')
    break
  except OptimizationConvergenceError:
    try:
      set opt_coordinates cartesian
      optimize('wb97x-d/6-31G*')
      break
    except OptimizationConvergenceError:
      pass
clean()
