molecule { 
0 1
 O    0.672795   -0.006283    0.029156
 C   -0.742196    0.016521    0.031975
 H   -1.106240   -0.743911    0.736139
 H   -1.111650   -0.141704   -0.990555
 H   -1.053820    1.012518    0.377544
 H    0.965257   -0.608682   -0.662994
}
set {
 e_convergence 10 
 d_convergence 10 
}
memory 100GB
set_num_threads(8)
psi4_io.set_default_path("/scratch/bdw2292/Psi4-methanol")
set freeze_core True
E, wfn = energy('wb97x-d/6-311+G*',return_wfn=True)
oeprop(wfn,"WIBERG_LOWDIN_INDICES")
clean()
