molecule { 
0 1
 O    0.672418    0.010387    0.006579
 C   -0.742784    0.038712    0.013766
 H   -1.107597   -0.722189    0.717133
 H   -1.101345   -0.118877   -1.012323
 H   -1.065647    1.031700    0.358955
 H    0.993256    0.600467    0.696790
}
set optking { 
  frozen_dihedral = ("
  ")
}
set {
  geom_maxiter 3
  g_convergence GAU_LOOSE
}
memory 100GB
set_num_threads(8)
psi4_io.set_default_path("/scratch/bdw2292/Psi4-methanol")
for _ in range(1):
  try:
    optimize('wb97x-d/6-31G*')
    break
  except OptimizationConvergenceError:
    try:
      set opt_coordinates cartesian
      optimize('wb97x-d/6-31G*')
      break
    except OptimizationConvergenceError:
      pass
clean()
