molecule { 
0 1
 O    0.673630   -0.016267    0.028709
 C   -0.741441    0.011288    0.033184
 H   -1.104200   -0.745773    0.741460
 H   -1.113610   -0.151008   -0.987736
 H   -1.052183    1.009046    0.375027
 H    0.981005    0.274211   -0.836542
}
set {
 e_convergence 10 
 d_convergence 10 
}
memory 100GB
set_num_threads(8)
psi4_io.set_default_path("/scratch/bdw2292/Psi4-methanol")
set freeze_core True
E, wfn = energy('wb97x-d/6-311+G*',return_wfn=True)
oeprop(wfn,"WIBERG_LOWDIN_INDICES")
clean()
