molecule { 
0 1
 O    0.672258   -0.013878    0.027751
 C   -0.743182    0.014618    0.029746
 H   -1.108483   -0.740310    0.739017
 H   -1.117258   -0.148745   -0.990245
 H   -1.052064    1.013690    0.369021
 H    0.974336   -0.197207   -0.868072
}
set {
 e_convergence 10 
 d_convergence 10 
}
memory 100GB
set_num_threads(8)
psi4_io.set_default_path("/scratch/bdw2292/Psi4-methanol")
set freeze_core True
E, wfn = energy('wb97x-d/6-311+G*',return_wfn=True)
oeprop(wfn,"WIBERG_LOWDIN_INDICES")
clean()
