molecule { 
0 1
C         -1.67290       -0.44230        0.21710
N         -2.88880       -1.10540       -0.07100
C         -0.45250       -0.99130       -0.17810
C          0.81870        0.79670        0.73960
C          0.76840       -0.39010        0.07510
C         -0.38080        1.37730        1.15150
C         -1.58120        0.75890        0.88810
H         -0.49600       -1.93920       -0.70890
H          1.69470       -0.88110       -0.25600
H         -0.33620        2.31250        1.67300
H         -2.48410        1.26410        1.24600
H         -2.87930       -1.96260       -0.55510
H         -3.74450       -0.70970        0.21260
H          1.72230        1.25580        0.93390
}
memory 100GB
set_num_threads(12)
psi4_io.set_default_path("/scratch/bdw2292/Psi4-farH_in17")
set maxiter 500
set freeze_core True
set PROPERTIES_ORIGIN ["COM"]
set cubeprop_tasks ['esp']
E, wfn = properties('hf/MINIX',properties=['dipole'],return_wfn=True)
cubeprop(wfn)
fchk(wfn, "farH_in17-esp_frag.fchk")
oeprop(wfn,"WIBERG_LOWDIN_INDICES","MULLIKEN_CHARGES")
clean()
