molecule { 
1 1
 H    2.036341    0.094341   -0.343921
 C    1.118327    0.610414   -0.620112
 N   -0.058756   -0.210685   -0.257231
 H   -0.224652   -0.857734   -1.036703
 H    1.153187    0.779870   -1.694267
 H    1.089840    1.563958   -0.097808
 C   -1.272661    0.611222   -0.107884
 C    0.196226   -1.016072    0.951083
 H   -1.138164    1.325702    0.702464
 H   -1.477532    1.153038   -1.029641
 H    1.097805   -1.612955    0.830272
 H    0.332192   -0.354571    1.806061
 H   -2.130412   -0.018859    0.121375
 H   -0.643145   -1.678897    1.152319
}
memory 20GB
set_num_threads(5)
psi4_io.set_default_path("/scratch/liuchw/Psi4-32_40_Index_0-farH_in17")
set freeze_core True
E, wfn = energy('wb97x-d/6-311+G*',return_wfn=True)
oeprop(wfn,"WIBERG_LOWDIN_INDICES")
clean()
