molecule { 
1 1
 H    1.724289    0.799239    0.264981
 C    1.112608    0.627996   -0.617584
 N   -0.083184   -0.175605   -0.269675
 H   -0.322173   -0.735514   -1.096205
 H    1.702744    0.131271   -1.384372
 H    0.811799    1.595232   -1.017399
 C   -1.253810    0.669764    0.027127
 C    0.204136   -1.117191    0.827032
 H   -1.041364    1.299565    0.890375
 H   -1.488349    1.307245   -0.822905
 H    1.068825   -1.730332    0.579428
 H    0.412895   -0.563618    1.741333
 H   -2.120814    0.051072    0.251607
 H   -0.649007   -1.770349    1.002265
}
memory 20GB
set_num_threads(5)
psi4_io.set_default_path("/scratch/liuchw/Psi4-32_40_Index_0-farH_in17")
set freeze_core True
E, wfn = energy('wb97x-d/6-311+G*',return_wfn=True)
oeprop(wfn,"WIBERG_LOWDIN_INDICES")
clean()
