molecule { 
1 1
 H    1.951563    0.401986    0.040487
 C    1.121499    0.621764   -0.626920
 N   -0.070459   -0.192016   -0.262600
 H   -0.275830   -0.799149   -1.063477
 H    1.439821    0.415691   -1.645688
 H    0.897241    1.682888   -0.543959
 C   -1.265989    0.640724   -0.038783
 C    0.196968   -1.069530    0.891863
 H   -1.093989    1.314438    0.799330
 H   -1.490863    1.226365   -0.928283
 H    1.077340   -1.681960    0.706901
 H    0.370435   -0.462180    1.779391
 H   -2.126180    0.013507    0.189731
 H   -0.652963   -1.723756    1.078016
}
memory 20GB
set_num_threads(5)
psi4_io.set_default_path("/scratch/liuchw/Psi4-32_40_Index_0-farH_in17")
set freeze_core True
E, wfn = energy('wb97x-d/6-311+G*',return_wfn=True)
oeprop(wfn,"WIBERG_LOWDIN_INDICES")
clean()
