%RWF=/scratch/bdw2292/Gau-acetamide/,20GB
%Nosave
%Chk=acetamide-dma_temp.chk
%Mem=5GB
%Nproc=4
#P MP2/6-311G** Sp Density=MP2 MaxDisk=20GB

 acetamide Gaussian Optimization on bme-nova.bme.utexas.edu

0 1
O	
N	
C	
C	
H	
H	
H	
H	
H	
	
