molecule { 
0 1
O            0.623442605227    -1.148810273012    -0.204080799267
N            0.737116826723     1.103895199402     0.103461024405
C           -1.453554284667     0.053453402637     0.078840229559
C            0.051403024279    -0.079859259384    -0.011455910789
H           -1.900046417352    -0.914034990431    -0.144497977475
H           -1.751573738560     0.361881974188     1.085463042084
H           -1.822380911860     0.800879955017    -0.628419620676
H            1.741406626867     1.034601323733     0.201668255488
H            0.291523342495     1.925627893661     0.484839430861
}
memory 5GB
set_num_threads(4)
psi4_io.set_default_path("/scratch/bdw2292")
set freeze_core True
E, wfn = energy('mp2/6-311++G(2d,2p)',return_wfn=True)
oeprop(wfn,"DIPOLE","GRID_ESP")
clean()
