%RWF=/scratch/liuchw/Gau-1_7_Index_0-farH_in17/,1267GB
%Nosave
%Chk=1_7_Index_0-opt_1.chk
%Mem=20GB
%Nproc=5
#P opt=(ModRedundant,maxcycles=400,Loose) MP2/6-31G* MaxDisk=1267GB 

1_7_Index_0 Gaussian OPT Calculation on node165.bme.utexas.edu

0 1
 H   -1.681300   -0.100100   -2.921100
 N   -1.869500   -0.604800   -2.056000
 C   -3.132000   -0.308900   -1.556000
 C   -4.064500   -1.440900   -1.761700
 C   -0.690300   -0.693300   -1.276900
 C   -3.569300    0.849600   -1.009400
 C   -4.889100    1.211400   -0.436900
 N   -3.522500    3.048500   -0.304000
 C   -2.710400    2.097600   -0.897300
 C   -4.787200    2.548300   -0.037000
 C   -4.118300   -2.500300   -0.845900
 C   -4.891400   -1.471400   -2.894900
 C   -5.004600   -3.560200   -1.046900
 C   -5.776500   -2.532600   -3.092600
 C   -5.835000   -3.573300   -2.166800
 C   -0.699000   -0.876100    0.106100
 C    0.545700   -0.746700   -1.926200
 C    0.496400   -1.040200    0.823600
 C    1.741100   -0.912600   -1.209900
 C    1.746200   -1.050800    0.182500
 H   -3.205200    3.987900   -0.120200
 O   -1.565700    2.293500   -1.257500
 H   -3.471500   -2.506000    0.026600
 H   -4.853100   -0.667500   -3.625700
 H   -5.048000   -4.376200   -0.330300
 H   -6.421300   -2.548000   -3.967600
 H   -6.527600   -4.397500   -2.319600
 H   -1.635600   -0.881500    0.655300
 H    0.596700   -0.665300   -3.009300
 H    0.405700   -1.131600    1.901500
 H    2.653700   -0.969700   -1.794500
 H   -5.716000    0.600000   -0.350900
 H   -5.550900    3.089100    0.398200
 H    2.625400   -1.155400    0.712700

1 2 3 4 F
5 2 3 4 F
1 2 5 16 F
3 2 5 16 F
2 3 4 11 F


