molecule { 
0 1
H 0.997937242707 0.308778154082 -1.903576961728
N 0.820413169686 -0.224545975516 -1.054765582114
C -0.475924549372 -0.008757716274 -0.504109051449
C -1.456610733187 -1.1063087619 -0.669422911109
C 1.938857213551 -0.263197556109 -0.202879040229
C -0.839314087011 1.175919993376 0.052533901309
C -2.087963242726 1.532578341518 0.693808718102
N -0.715600857708 3.331908933802 0.777588311039
C 0.038111763721 2.396548668913 0.080861658512
C -1.965812402132 2.815126659906 1.118257558417
C -1.497917237857 -2.179116479176 0.230451969775
C -2.389801291285 -1.046597704267 -1.712236647812
C -2.442613902794 -3.191458448571 0.070429386975
C -3.329502735927 -2.064084872299 -1.872877725036
C -3.360436663532 -3.135392962779 -0.979618611652
C 1.814645349464 -0.490487920548 1.173683863841
C 3.219989851801 -0.152930980768 -0.75944318054
C 2.953706600161 -0.594745981176 1.970698133935
C 4.350029922874 -0.253767275177 0.044767090154
C 4.22722328806 -0.483135142134 1.416033991131
H -0.406808159301 4.285900536509 0.910372291022
O 1.140442443682 2.589355152341 -0.424191471515
H -0.77430512476 -2.228923352823 1.040463532002
H -2.370729541346 -0.202205199274 -2.398172622837
H -2.468189296908 -4.021623225682 0.77198965332
H -4.045712467318 -2.014264917538 -2.689364457551
H -4.09556681058 -3.926438409158 -1.103328517272
H 0.830463250674 -0.555985877545 1.628668420404
H 3.323931371044 0.027137617568 -1.827812029728
H 2.838198769701 -0.7680848951 3.038249300979
H 5.334242701214 -0.15486048671 -0.406919091126
H -2.937586237334 0.882308167506 0.84774974248
H -2.675198080951 3.427203342608 1.661110959571
H 5.110798163953 -0.562850658801 2.043059612999
}
memory 20GB
set_num_threads(5)
psi4_io.set_default_path("/scratch/liuchw/Psi4-1_7_Index_0-farH_in17")
set maxiter 500
set freeze_core True
set PROPERTIES_ORIGIN ["COM"]
set cubeprop_tasks ['esp']
set basis aug-cc-pVTZ 
E, wfn = properties('mp2',properties=['dipole','GRID_ESP','WIBERG_LOWDIN_INDICES','MULLIKEN_CHARGES'],return_wfn=True)
cubeprop(wfn)
fchk(wfn, "1_7_Index_0-esp.fchk")
clean()
