molecule { 
0 1
C         -0.79870       -0.46170        0.40860
N         -2.06780       -0.69620        0.96370
C         -3.34440       -0.17000        0.77570
C         -4.40600       -0.53170        1.53860
H         -2.03740       -1.38700        1.72220
C         -3.57440        0.75960       -0.34700
C         -5.84450       -0.19140        1.51590
N         -5.46230       -1.60290        3.28930
C         -4.21840       -1.48060        2.70320
C         -6.41730       -0.86260        2.60460
C         -3.69970        2.13940       -0.11620
C         -3.69150        0.26880       -1.65490
C         -3.94510        3.01080       -1.17870
C         -3.93630        1.14370       -2.71460
C         -4.06530        2.51180       -2.47540
C          0.17590       -1.45560        0.57390
C         -0.43520        0.64590       -0.34920
C          1.46150       -1.33920        0.02120
C          0.85060        0.76730       -0.90610
C          1.83080       -0.22030       -0.72870
H         -5.63160       -2.18680        4.09440
O         -3.18700       -2.02820        3.05110
H         -3.60970        2.53610        0.89250
H         -3.59150       -0.79670       -1.84880
H         -4.05260        4.07670       -0.99460
H         -4.03330        0.75700       -3.72580
H         -4.26760        3.18990       -3.30100
H         -0.06130       -2.35900        1.13380
H         -1.12070        1.46840       -0.50880
H          2.13470       -2.17740        0.17120
H          1.05380        1.68270       -1.45390
H         -6.32830        0.41660        0.83670
H         -7.41520       -0.81340        2.86300
H          2.77610       -0.12500       -1.13150
}
memory 49GB
set_num_threads(12)
psi4_io.set_default_path("/scratch/bdw2292/Psi4-farH_in17")
set maxiter 500
set freeze_core True
set PROPERTIES_ORIGIN ["COM"]
set cubeprop_tasks ['esp']
set basis MINIX 
E, wfn = properties('hf',properties=['dipole'],return_wfn=True)
cubeprop(wfn)
fchk(wfn, "farH_in17-esp_frag.fchk")
oeprop(wfn,"WIBERG_LOWDIN_INDICES","MULLIKEN_CHARGES")
clean()
