molecule { 
0 1
H         -1.68130       -0.10010       -2.92110
N         -1.86950       -0.60480       -2.05600
C         -0.69030       -0.69330       -1.27690
C          0.54570       -0.74670       -1.92620
C         -3.13200       -0.30890       -1.55600
C         -0.69900       -0.87610        0.10610
C         -3.56930        0.84960       -1.00940
N         -3.52250        3.04850       -0.30400
C         -4.88910        1.21140       -0.43690
C         -2.71040        2.09760       -0.89730
C         -4.78720        2.54830       -0.03700
C         -4.06450       -1.44090       -1.76170
C         -4.11830       -2.50030       -0.84590
C         -4.89140       -1.47140       -2.89490
C         -5.00460       -3.56020       -1.04690
C         -5.77650       -2.53260       -3.09260
C         -5.83500       -3.57330       -2.16680
C          0.49640       -1.04020        0.82360
C          1.74110       -0.91260       -1.20990
C          1.74620       -1.05080        0.18250
H         -1.63560       -0.88150        0.65530
H          0.59670       -0.66530       -3.00930
H         -3.20520        3.98790       -0.12020
O         -1.56570        2.29350       -1.25750
H         -3.47150       -2.50600        0.02660
H         -4.85310       -0.66750       -3.62570
H         -5.04800       -4.37620       -0.33030
H         -6.42130       -2.54800       -3.96760
H         -6.52760       -4.39750       -2.31960
H          0.40570       -1.13160        1.90150
H          2.65370       -0.96970       -1.79450
H         -5.71600        0.60000       -0.35090
H         -5.55090        3.08910        0.39820
H          2.62540       -1.15540        0.71270
}
memory 208GB
set_num_threads(51)
psi4_io.set_default_path("/scratch/liuchw/Psi4-farH_in17")
set maxiter 500
set freeze_core True
set PROPERTIES_ORIGIN ["COM"]
set cubeprop_tasks ['esp']
set basis MINIX 
E, wfn = properties('hf',properties=['dipole','WIBERG_LOWDIN_INDICES','MULLIKEN_CHARGES'],return_wfn=True)
cubeprop(wfn)
fchk(wfn, "farH_in17-esp_frag.fchk")
clean()
