molecule { 
1 1
 H    1.998363   -0.040160   -0.756031
 C    1.123088    0.590384   -0.613724
 N   -0.048114   -0.227160   -0.247116
 H   -0.183263   -0.915020   -0.998190
 H    0.931111    1.139037   -1.533947
 H    1.332588    1.306748    0.179560
 C   -1.276366    0.583432   -0.174089
 C    0.194306   -0.967704    1.003438
 H   -1.170034    1.343182    0.599010
 H   -1.463152    1.076971   -1.125836
 H    1.110174   -1.550584    0.928138
 H    0.296110   -0.265752    1.829963
 H   -2.131382   -0.044787    0.068581
 H   -0.634830   -1.639814    1.216251
}
memory 20GB
set_num_threads(5)
psi4_io.set_default_path("/scratch/liuchw/Psi4-32_40_Index_0-farH_in17")
set freeze_core True
E, wfn = energy('wb97x-d/6-311+G*',return_wfn=True)
oeprop(wfn,"WIBERG_LOWDIN_INDICES")
clean()
