molecule { 
1 1
 H    1.191029    1.475667    0.070167
 C    1.088522    0.650962   -0.635124
 N   -0.108811   -0.147971   -0.290431
 H   -0.414767   -0.616275   -1.151427
 H    1.989378    0.047005   -0.555008
 H    1.008405    1.062602   -1.637951
 C   -1.223286    0.703791    0.160686
 C    0.206045   -1.190856    0.702863
 H   -0.940256    1.233754    1.068617
 H   -1.480361    1.429147   -0.609367
 H    1.033693   -1.808379    0.360134
 H    0.491535   -0.721503    1.643817
 H   -2.102067    0.096387    0.370955
 H   -0.660464   -1.825561    0.878076
}
memory 20GB
set_num_threads(5)
psi4_io.set_default_path("/scratch/liuchw/Psi4-32_40_Index_0-farH_in17")
set freeze_core True
E, wfn = energy('wb97x-d/6-311+G*',return_wfn=True)
oeprop(wfn,"WIBERG_LOWDIN_INDICES")
clean()
