molecule { 
1 1
 H    1.282544    0.551488   -1.677042
 C    1.155074    0.563552   -0.595355
 N   -0.007088   -0.267303   -0.207297
 H   -0.038412   -1.061304   -0.857260
 H    0.987170    1.598410   -0.301935
 H    2.068144    0.196151   -0.135213
 C   -1.276693    0.465552   -0.354778
 C    0.147539   -0.805300    1.156725
 H   -1.285295    1.328342    0.309174
 H   -1.400241    0.805179   -1.381718
 H    1.091320   -1.337946    1.253040
 H    0.139677    0.015453    1.873166
 H   -2.116540   -0.178713   -0.100074
 H   -0.668602   -1.484792    1.394574
}
memory 20GB
set_num_threads(5)
psi4_io.set_default_path("/scratch/liuchw/Psi4-32_40_Index_0-farH_in17")
set freeze_core True
E, wfn = energy('wb97x-d/6-311+G*',return_wfn=True)
oeprop(wfn,"WIBERG_LOWDIN_INDICES")
clean()
