molecule { 
1 1
 H    1.039047    0.900696   -1.616280
 C    1.152912    0.554491   -0.590854
 N    0.001437   -0.277636   -0.195589
 H    0.002312   -1.103976   -0.806078
 H    1.223858    1.419525    0.066963
 H    2.076755   -0.015925   -0.515213
 C   -1.276349    0.422889   -0.413989
 C    0.138990   -0.744987    1.194975
 H   -1.312721    1.321237    0.200695
 H   -1.378777    0.709932   -1.458691
 H    1.092952   -1.250028    1.333402
 H    0.094954    0.106395    1.872785
 H   -2.112159   -0.219675   -0.143569
 H   -0.664612   -1.434168    1.447452
}
memory 20GB
set_num_threads(5)
psi4_io.set_default_path("/scratch/liuchw/Psi4-32_40_Index_0-farH_in17")
set freeze_core True
E, wfn = energy('wb97x-d/6-311+G*',return_wfn=True)
oeprop(wfn,"WIBERG_LOWDIN_INDICES")
clean()
