molecule { 
1 1
 H    1.864670   -0.008601   -1.169015
 C    1.138565    0.581294   -0.616343
 N   -0.036501   -0.236550   -0.234059
 H   -0.143863   -0.965026   -0.949614
 H    0.831615    1.439122   -1.210543
 H    1.619340    0.970902    0.280661
 C   -1.283225    0.549841   -0.233722
 C    0.180445   -0.920416    1.053138
 H   -1.210699    1.351110    0.500893
 H   -1.457379    0.987423   -1.214624
 H    1.103875   -1.495987    1.022904
 H    0.247714   -0.185106    1.853597
 H   -2.130578   -0.083184    0.023447
 H   -0.645383   -1.596050    1.269287
}
memory 20GB
set_num_threads(5)
psi4_io.set_default_path("/scratch/liuchw/Psi4-32_40_Index_0-farH_in17")
set freeze_core True
E, wfn = energy('wb97x-d/6-311+G*',return_wfn=True)
oeprop(wfn,"WIBERG_LOWDIN_INDICES")
clean()
