%RWF=/scratch/bdw2292/Gau-1_16_Index_0-farH_in17/,42.333333333333336GB
%Nosave
%Chk=1_16_Index_0-dma_temp.chk
%Mem=8.166666666666666GB
%Nproc=2
#P MP2/6-311G** Sp Density=MP2 MaxDisk=42.333333333333336GB 

1_16_Index_0 Gaussian SP Calculation on node74.bme.utexas.edu

0 1
 C   -0.563713   -0.226493    0.380391
 N    0.612778   -0.906280    0.434955
 C    1.838423   -0.557763   -0.164013
 C    2.705304   -1.598158   -0.519815
 H    0.618486   -1.649037    1.150912
 C    2.233818    0.772722   -0.355928
 C   -1.572727   -0.548477    1.267010
 N   -2.590426   -1.574250    2.998233
 C   -2.933765   -0.074854    1.351976
 C   -1.384553   -1.543999    2.326722
 C   -3.514754   -0.712528    2.404574
 C   -0.774222    0.765374   -0.690681
 C   -1.254175    2.045779   -0.386525
 C   -0.509875    0.419714   -2.023235
 C   -1.462915    2.972157   -1.407607
 C   -0.726948    1.347690   -3.037866
 C   -1.200706    2.625931   -2.733587
 C    3.947504   -1.312677   -1.080403
 C    3.469090    1.045659   -0.938557
 C    4.331731    0.010211   -1.301193
 H    2.390083   -2.627421   -0.363086
 H    1.585397    1.583800   -0.041480
 H   -2.767488   -2.206594    3.767588
 O   -0.382668   -2.243853    2.589972
 H   -1.442576    2.312250    0.650679
 H   -0.142884   -0.577253   -2.254796
 H   -1.827316    3.967741   -1.166631
 H   -0.527088    1.073684   -4.070734
 H   -1.364260    3.349425   -3.528176
 H    4.612899   -2.128432   -1.351305
 H    3.768269    2.080172   -1.087594
 H   -3.415383    0.639438    0.698915
 H   -4.519534   -0.631402    2.796880
 H    5.297352    0.233066   -1.746706



