molecule { 
0 1
C -0.563712849828 -0.226492940823 0.380391040200
N 0.612777848601 -0.906280244297 0.434955264092
C 1.838422773126 -0.557763370741 -0.164013047210
C 2.705304315703 -1.598157736206 -0.519815150991
H 0.618485927171 -1.649036949364 1.150911903830
C 2.233817966371 0.772721561398 -0.355928301122
C -1.572727077891 -0.548477361001 1.267010309433
N -2.590425887101 -1.574249772932 2.998233269102
C -2.933765060844 -0.074854075383 1.351975643454
C -1.384553005968 -1.543999105186 2.326722405601
C -3.514753814059 -0.712527750839 2.404574366053
C -0.774222385430 0.765373686117 -0.690681123152
C -1.254174670507 2.045778810611 -0.386525135040
C -0.509875437222 0.419713866858 -2.023234591879
C -1.462914621891 2.972156972317 -1.407606789620
C -0.726948155727 1.347689886183 -3.037865890116
C -1.200705567233 2.625931387797 -2.733586576907
C 3.947503641537 -1.312676616611 -1.080402748329
C 3.469089765274 1.045658561372 -0.938556651698
C 4.331731336313 0.010210839099 -1.301193122969
H 2.390083310976 -2.627420943336 -0.363085727852
H 1.585397328148 1.583799735206 -0.041479991065
H -2.767487991396 -2.206593535014 3.767588468517
O -0.382668090957 -2.243853127674 2.589972236012
H -1.442575962317 2.312250217225 0.650678663512
H -0.142884425176 -0.577252811762 -2.254796250865
H -1.827315996583 3.967740890843 -1.166630884098
H -0.527087759433 1.073683969345 -4.070733779827
H -1.364260363602 3.349425227969 -3.528175536900
H 4.612899062605 -2.128431983304 -1.351304908323
H 3.768269159493 2.080172394605 -1.087594430332
H -3.415382945437 0.639437596205 0.698914839281
H -4.519533553330 -0.631402330319 2.796879594285
H 5.297352472089 0.233066463053 -1.746706453842
}
memory 8.166666666666666GB
set_num_threads(2)
psi4_io.set_default_path("/scratch/bdw2292/Psi4-1_16_Index_0-farH_in17")
set maxiter 500
set freeze_core True
set PROPERTIES_ORIGIN ["COM"]
set cubeprop_tasks ['esp']
set basis aug-cc-pVTZ 
E, wfn = properties('mp2',properties=['dipole'],return_wfn=True)
cubeprop(wfn)
fchk(wfn, "1_16_Index_0-esp.fchk")
oeprop(wfn,"GRID_ESP","WIBERG_LOWDIN_INDICES","MULLIKEN_CHARGES")
clean()
