molecule { 
0 1
H         -2.17240       -3.04390        0.42450
C         -2.79090       -2.55700       -0.33120
N         -2.88880       -1.10540       -0.07100
C         -1.67290       -0.44230        0.21710
C         -4.15550       -0.51950       -0.13450
C         -0.45250       -0.99130       -0.17810
C          0.81870        0.79670        0.73960
C          0.76840       -0.39010        0.07510
C         -0.38080        1.37730        1.15150
C         -1.58120        0.75890        0.88810
H         -2.33400       -2.65370       -1.32860
H         -3.80720       -3.03690       -0.27370
O         -4.29600        0.70990        0.04690
H         -0.49600       -1.93920       -0.70890
H          1.69470       -0.88110       -0.25600
H         -0.33620        2.31250        1.67300
H         -2.48410        1.26410        1.24600
H         -4.98150       -1.10560       -0.33260
H          1.72230        1.25580        0.93390
}
memory 100GB
set_num_threads(12)
psi4_io.set_default_path("/scratch/bdw2292/Psi4-farH_in17")
set maxiter 500
set freeze_core True
set PROPERTIES_ORIGIN ["COM"]
set cubeprop_tasks ['esp']
E, wfn = properties('hf/MINIX',properties=['dipole'],return_wfn=True)
cubeprop(wfn)
fchk(wfn, "farH_in17-esp_frag.fchk")
oeprop(wfn,"WIBERG_LOWDIN_INDICES","MULLIKEN_CHARGES")
clean()
