molecule { 
0 1
C 0.939754357210 0.035457818794 -0.053446943695
N 2.332789557650 0.105632020069 -0.222252249022
C 0.196697151823 1.192322939331 0.214150412477
C 0.259792343251 -1.173773313112 -0.247001332546
C -1.191050878766 1.132799961887 0.312696917773
C -1.128153853046 -1.226891184529 -0.147305655516
C -1.864163149868 -0.074795027932 0.128665175415
H 2.804813121311 -0.768703477382 -0.015734765949
H 0.713315611659 2.140186263720 0.354248809433
H 0.825735891946 -2.077115623473 -0.467568555886
H -1.748939861063 2.041002021735 0.527533301631
H -1.636492865113 -2.176686474303 -0.294626160786
H 2.761487108306 0.860330512892 0.303723132257
H -2.946705884419 -0.118859252323 0.206729087873
}
memory 8.333333333333334GB
set_num_threads(1)
psi4_io.set_default_path("/scratch/bdw2292/Psi4-16_Index_0-farH_in17")
set freeze_core True
set PROPERTIES_ORIGIN ["COM"]
set cubeprop_tasks ['esp']
E, wfn = properties('mp2/6-311G**',properties=['dipole'],return_wfn=True)
cubeprop(wfn)
fchk(wfn, "16_Index_0-dma.fchk")
clean()
