molecule { 
0 1
 C    0.907600    0.010000   -0.041700
 N    2.325200    0.076800   -0.091700
 C    0.158600    1.149600    0.168500
 C    0.208500   -1.170800   -0.196600
 C   -1.221000    1.125200    0.223600
 C   -1.177100   -1.196400   -0.141500
 C   -1.916500   -0.055000    0.068600
 H    2.894800    0.011500   -0.960400
 H    0.661300    2.098300    0.295500
 H    0.807700   -2.061000   -0.361400
 H   -1.787800    2.040000    0.390800
 H   -1.698800   -2.132500   -0.265600
 H    2.843600    0.200400    0.803400
 H   -3.006100   -0.096200    0.108700
}
set {
  geom_maxiter 400
  g_convergence GAU
  dynamic_level 1
}
memory 8.333333333333334GB
set_num_threads(1)
psi4_io.set_default_path("/scratch/bdw2292/Psi4-16_Index_0-farH_in17")
for _ in range(1):
  try:
    set opt_coordinates both
    optimize('mp2/6-31G*')
    break
  except OptimizationConvergenceError:
    break
  else:
    try:
      set opt_coordinates cartesian
      optimize('mp2/6-31G*')
      break
    except OptimizationConvergenceError:
      pass
clean()
