molecule { 
0 1
 H   -0.316657   -0.256945   -1.196304
 N    0.076514   -0.279256   -0.249032
 C    1.224467   -1.039114    0.037437
 C    2.426097   -0.409758    0.344711
 C   -0.582559    0.475510    0.635424
 C    1.181149   -2.424804   -0.076745
 C   -1.698414    1.173852    0.273455
 N   -3.322283    1.958765   -1.072876
 C   -2.540853    2.067145    1.021693
 C   -2.232233    1.134099   -1.083241
 C   -3.498440    2.513412    0.185881
 C    2.319318   -3.172707    0.162472
 C    3.559380   -1.164790    0.587436
 C    3.507951   -2.545741    0.498917
 H    0.251712   -2.903672   -0.346044
 H    2.458101    0.668234    0.405752
 H   -3.904542    2.140394   -1.872940
 O   -1.809025    0.508165   -2.056627
 H    2.279320   -4.248932    0.083744
 H    4.488504   -0.672217    0.832943
 H   -2.417467    2.317331    2.056557
 H   -4.308691    3.192847    0.367970
 H    4.394913   -3.132521    0.684488
 H   -0.170507    0.539683    1.636212
}
memory 20GB
set_num_threads(5)
psi4_io.set_default_path("/scratch/liuchw/Psi4-1_16_Index_0-farH_in17")
set freeze_core True
E, wfn = energy('wb97x-d/6-311+G*',return_wfn=True)
oeprop(wfn,"WIBERG_LOWDIN_INDICES")
clean()
