molecule { 
0 1
 H    0.482860    1.117518    0.243083
 N    0.306745    0.112066    0.133500
 C    1.358638   -0.823660    0.229926
 C    1.946340   -1.332047   -0.922355
 C   -0.974667   -0.196810   -0.080801
 C    1.838821   -1.205228    1.477328
 C   -1.927418    0.777124   -0.174349
 N   -2.790268    2.855279   -0.166168
 C   -3.350975    0.697252   -0.360220
 C   -1.601083    2.192016   -0.048249
 C   -3.829821    1.956399   -0.352684
 C    2.885708   -2.104968    1.567956
 C    2.991289   -2.233508   -0.824381
 C    3.461446   -2.621260    0.419039
 H    1.385101   -0.794754    2.367071
 H    1.573328   -1.021462   -1.887023
 H   -2.890050    3.855302   -0.120328
 O   -0.498692    2.711901    0.137129
 H    3.253268   -2.403456    2.538448
 H    3.443431   -2.629267   -1.721608
 H   -3.911959   -0.207495   -0.484959
 H   -4.836556    2.310668   -0.463362
 H    4.278336   -3.323284    0.492788
 H   -1.228064   -1.249347   -0.138502
}
memory 20GB
set_num_threads(5)
psi4_io.set_default_path("/scratch/liuchw/Psi4-1_16_Index_0-farH_in17")
set freeze_core True
E, wfn = energy('wb97x-d/6-311+G*',return_wfn=True)
oeprop(wfn,"WIBERG_LOWDIN_INDICES")
clean()
