molecule { 
0 1
 C   -0.667200    0.000000    0.000000
 C    0.667200    0.000000    0.000000
 H   -1.221300   -0.929000    0.070800
 H   -1.221200    0.929000   -0.070800
 H    1.221300    0.929000   -0.070800
 H    1.221300   -0.929000    0.070800
}
memory 5GB
set_num_threads(4)
psi4_io.set_default_path("/scratch/bdw2292")
optimize('mp2/6-31G*')
clean()
