molecule { 
0 1
C            0.000006028363     0.667512770964     0.000000000000
C           -0.000006144750    -0.667512711517     0.000000000000
H           -0.922878826341     1.237507146076     0.000000000000
H            0.922902136267     1.237492286491     0.000000000000
H            0.922878353820    -1.237508378903     0.000000000000
H           -0.922900277947    -1.237491761489     0.000000000000
}
memory 5GB
set_num_threads(4)
psi4_io.set_default_path("/scratch/bdw2292")
set freeze_core True
E, wfn = energy('mp2/6-311G**',return_wfn=True)
gdma(wfn)
fchk(wfn, "ethene-dma.fchk")
clean()
