molecule { 
0 1
 N    1.075300   -0.018600    0.047100
 H    0.763700    0.618300    0.779000
 H    0.763700    0.390600   -0.832600
 H    2.092600    0.039200    0.039000
}
memory 5GB
set_num_threads(4)
psi4_io.set_default_path("/scratch/bdw2292")
optimize('mp2/6-31G*')
clean()
