molecule { 
0 1
N           -0.022969419889    -0.064322850541     0.009087840336
H           -0.336675715744     0.566884076293     0.741901772842
H           -0.336638113543     0.339145637016    -0.869933149905
H            0.992458994620    -0.012305497800     0.001761740276
}
memory 5GB
set_num_threads(4)
psi4_io.set_default_path("/scratch/bdw2292")
set freeze_core True
E, wfn = energy('mp2/6-311G**',return_wfn=True)
gdma(wfn)
fchk(wfn, "ammonia-dma.fchk")
clean()
