molecule { 
0 1
 C    1.987443    0.780149    0.988517
 N    1.091473   -0.222795    0.950731
 C   -0.120164   -0.067626    0.208230
 C   -0.205456   -0.572844   -1.080629
 C    1.232570   -1.438919    1.714033
 C   -1.200335    0.593203    0.773283
 C   -2.370797    0.737570    0.049368
 C   -2.462426    0.225163   -1.233346
 C   -1.379172   -0.426433   -1.798297
 H   -1.115206    0.999169    1.770098
 H    0.648783   -1.069553   -1.516209
 O    1.887672    1.832920    0.409501
 H    2.268325   -1.559507    2.026889
 H    0.938218   -2.292960    1.101893
 H    0.593199   -1.418586    2.602401
 H   -3.211765    1.254295    0.487260
 H   -1.445960   -0.817041   -2.802838
 H   -3.376717    0.339686   -1.796340
 H    2.863999    0.522899    1.616037
}
memory 20GB
set_num_threads(5)
psi4_io.set_default_path("/scratch/liuchw/Psi4-3_24_Index_0-farH_in17")
set freeze_core True
E, wfn = energy('wb97x-d/6-311+G*',return_wfn=True)
oeprop(wfn,"WIBERG_LOWDIN_INDICES")
clean()
