molecule { 
0 1
 C    1.211281    0.492592    2.203072
 N    0.988876   -0.224364    1.076189
 C   -0.181581   -0.058614    0.297808
 C   -0.785050   -1.156201   -0.309807
 C    1.915007   -1.267764    0.693715
 C   -0.734061    1.206280    0.118678
 C   -1.873946    1.363240   -0.647807
 C   -2.472274    0.270457   -1.251354
 C   -1.922201   -0.987428   -1.078947
 H   -0.275587    2.061916    0.584997
 H   -0.380007   -2.147799   -0.181744
 O    0.508260    1.352973    2.668866
 H    2.869141   -1.100628    1.191851
 H    2.076468   -1.238624   -0.384339
 H    1.551175   -2.258725    0.976222
 H   -2.293448    2.349839   -0.776947
 H   -2.381020   -1.848372   -1.542678
 H   -3.360838    0.397270   -1.851324
 H    2.163492    0.192741    2.684136
}
memory 20GB
set_num_threads(5)
psi4_io.set_default_path("/scratch/liuchw/Psi4-3_24_Index_0-farH_in17")
set freeze_core True
E, wfn = energy('wb97x-d/6-311+G*',return_wfn=True)
oeprop(wfn,"WIBERG_LOWDIN_INDICES")
clean()
