molecule { 
0 1
 C    2.182616    0.498429    0.638982
 N    1.063328   -0.200350    0.945993
 C   -0.114753   -0.115304    0.169400
 C   -0.039175   -0.003503   -1.215820
 C    1.041690   -0.957178    2.182175
 C   -1.364513   -0.118062    0.784313
 C   -2.515322   -0.034105    0.022080
 C   -2.437476    0.066760   -1.355979
 C   -1.195954    0.086876   -1.967876
 H   -1.446457   -0.166497    1.859574
 H    0.922243    0.012746   -1.700610
 O    2.351733    1.229031   -0.304016
 H    0.193018   -1.635830    2.183023
 H    0.991807   -0.301376    3.055623
 H    1.954781   -1.550929    2.258514
 H   -3.477835   -0.038652    0.512264
 H   -1.123675    0.170671   -3.041851
 H   -3.338137    0.134798   -1.947193
 H    2.975760    0.321258    1.391990
}
memory 20GB
set_num_threads(5)
psi4_io.set_default_path("/scratch/liuchw/Psi4-3_24_Index_0-farH_in17")
set freeze_core True
E, wfn = energy('wb97x-d/6-311+G*',return_wfn=True)
oeprop(wfn,"WIBERG_LOWDIN_INDICES")
clean()
