molecule { 
0 1
 C    2.267234    0.271264    0.495359
 N    1.094152   -0.272222    0.898206
 C   -0.107398   -0.094926    0.172023
 C   -0.092686   -0.073017   -1.219903
 C    1.026775   -0.978541    2.158843
 C   -1.322619    0.029546    0.839960
 C   -2.496856    0.184797    0.125533
 C   -2.478026    0.215729   -1.257688
 C   -1.271494    0.087580   -1.924181
 H   -1.362006    0.018461    1.917864
 H    0.840883   -0.172208   -1.747292
 O    2.465857    0.920433   -0.499955
 H    2.030830   -1.279658    2.455298
 H    0.415346   -1.874262    2.044844
 H    0.608618   -0.355196    2.953237
 H   -3.431617    0.283949    0.657655
 H   -1.245036    0.104889   -3.003400
 H   -3.396869    0.337354   -1.811149
 H    3.078595    0.044814    1.215331
}
memory 20GB
set_num_threads(5)
psi4_io.set_default_path("/scratch/liuchw/Psi4-3_24_Index_0-farH_in17")
set freeze_core True
E, wfn = energy('wb97x-d/6-311+G*',return_wfn=True)
oeprop(wfn,"WIBERG_LOWDIN_INDICES")
clean()
