molecule { 
0 1
 C    1.850182   -1.455005    0.640780
 N    1.017574   -0.454642    0.995216
 C   -0.163934   -0.214369    0.237891
 C   -0.303813    0.952340   -0.502049
 C    1.358609    0.503956    2.019636
 C   -1.160141   -1.180250    0.205545
 C   -2.301561   -0.967085   -0.546425
 C   -2.452570    0.205689   -1.266543
 C   -1.451953    1.162482   -1.244250
 H   -1.029418   -2.095859    0.761176
 H    0.482263    1.692842   -0.499483
 O    1.682394   -2.226685   -0.269579
 H    2.152717    0.099273    2.644897
 H    0.483207    0.703737    2.639608
 H    1.701198    1.448707    1.588784
 H   -3.074414   -1.720660   -0.570563
 H   -1.558931    2.072051   -1.816610
 H   -3.344875    0.371164   -1.851455
 H    2.737149   -1.498902    1.304011
}
memory 20GB
set_num_threads(5)
psi4_io.set_default_path("/scratch/liuchw/Psi4-3_24_Index_0-farH_in17")
set freeze_core True
E, wfn = energy('wb97x-d/6-311+G*',return_wfn=True)
oeprop(wfn,"WIBERG_LOWDIN_INDICES")
clean()
