molecule { 
0 1
 C    2.282634    0.122404    0.377265
 N    1.101837   -0.308452    0.879012
 C   -0.121430   -0.094761    0.192174
 C   -0.168686   -0.173927   -1.196702
 C    1.074930   -1.071186    2.107409
 C   -1.283888    0.216506    0.891751
 C   -2.468591    0.436311    0.213177
 C   -2.511926    0.355510   -1.167618
 C   -1.356827    0.052611   -1.867023
 H   -1.274428    0.307024    1.966899
 H    0.724520   -0.409188   -1.750418
 O    2.467765    0.683800   -0.672731
 H    0.350753   -0.663630    2.812037
 H    2.055288   -1.032945    2.579543
 H    0.812926   -2.112121    1.902138
 H   -3.361505    0.678698    0.770522
 H   -1.377702   -0.012968   -2.944499
 H   -3.438605    0.529980   -1.693166
 H    3.116617   -0.104880    1.070817
}
memory 20GB
set_num_threads(5)
psi4_io.set_default_path("/scratch/liuchw/Psi4-3_24_Index_0-farH_in17")
set freeze_core True
E, wfn = energy('wb97x-d/6-311+G*',return_wfn=True)
oeprop(wfn,"WIBERG_LOWDIN_INDICES")
clean()
