molecule { 
0 1
 C    1.668867    0.178794   -1.338683
 N    0.586022    0.275934   -0.372317
 C   -0.297243   -0.836397   -0.184741
 C   -1.773838   -0.447708   -0.096723
 C    0.683015    1.272591    0.689882
 H   -0.054816   -1.457045    0.697900
 H   -0.210444   -1.500778   -1.048071
 N   -2.606475   -1.490604    0.212512
 O   -2.212181    0.679677   -0.357403
 C    3.024535   -0.246081   -0.755475
 H    1.364060   -0.523041   -2.118172
 H    1.784967    1.150086   -1.832351
 C    1.024344    0.713869    2.078219
 H    1.445424    1.993903    0.388770
 H   -0.261191    1.819886    0.745603
 H    2.950850   -1.224615   -0.275272
 H    3.783967   -0.304507   -1.538992
 H    1.103862    1.527858    2.801946
 H    0.247493    0.035472    2.438191
 H   -2.271389   -2.324568    0.657655
 H   -3.593221   -1.305585    0.243542
 H    3.368284    0.471349   -0.007877
 H    1.971176    0.170030    2.066594
}
memory 8.166666666666666GB
set_num_threads(2)
psi4_io.set_default_path("/scratch/bdw2292/Psi4-4_27_Index_0-farH_in17")
set freeze_core True
E, wfn = energy('wb97x-d/6-311+G*',return_wfn=True)
oeprop(wfn,"WIBERG_LOWDIN_INDICES")
clean()
