molecule { 
0 1
 C    1.528562    0.156760   -1.543945
 N    0.645640    0.249731   -0.389149
 C   -0.567028   -0.549674   -0.413703
 C   -1.827967    0.301008   -0.673014
 C    0.878169    1.077226    0.781690
 H   -0.688246   -1.090765    0.545008
 H   -0.515199   -1.348932   -1.171130
 N   -3.004656   -0.392524   -0.569684
 O   -1.799564    1.495444   -0.978182
 C    2.894125   -0.437869   -1.162192
 H    1.061220   -0.442431   -2.343177
 H    1.634973    1.167385   -1.975340
 C    1.334431    0.245846    1.997485
 H    1.626089    1.845279    0.522602
 H   -0.046576    1.638086    1.003158
 H    2.779150   -1.383498   -0.629163
 H    3.507773   -0.616751   -2.046554
 H    1.488380    0.888700    2.864863
 H    0.593825   -0.504891    2.275469
 H   -3.036864   -1.253854   -0.050073
 H   -3.855192    0.137680   -0.662204
 H    3.445535    0.249534   -0.516422
 H    2.274831   -0.266177    1.785329
}
set optking { 
  frozen_dihedral = ("
    1 2 3 4
    10 1 2 5
    13 5 2 1
    2 3 4 8
    3 4 8 20
  ")
}
set {
  geom_maxiter 400
  g_convergence GAU_LOOSE
  dynamic_level 1
}
memory 8.166666666666666GB
set_num_threads(2)
psi4_io.set_default_path("/scratch/bdw2292/Psi4-4_27_Index_0-farH_in17")
for _ in range(1):
  try:
    set opt_coordinates both
    optimize('wb97x-d/6-311G')
    break
  except OptimizationConvergenceError:
    break
  else:
    try:
      set opt_coordinates cartesian
      optimize('wb97x-d/6-311G')
      break
    except OptimizationConvergenceError:
      pass
clean()
