molecule { 
0 1
 C    1.199345   -0.428765   -0.904329
 N    0.492014   -0.347400    0.384642
 C   -0.947417   -0.514939    0.371500
 C   -1.758152    0.256202   -0.673006
 C    1.003776    0.689074    1.298613
 H   -1.333609   -0.292516    1.369399
 H   -1.182715   -1.572797    0.192304
 N   -3.114374    0.135108   -0.529719
 O   -1.262924    0.884413   -1.620976
 C    2.659464   -0.842412   -0.736955
 H    0.682970   -1.173216   -1.514414
 H    1.136435    0.517254   -1.450744
 C    1.828075    0.108971    2.447845
 H    1.606976    1.409190    0.732635
 H    0.165984    1.264099    1.706321
 H    2.731949   -1.774984   -0.174901
 H    3.121496   -0.985410   -1.716331
 H    2.185421    0.900326    3.112458
 H    1.223494   -0.587764    3.031727
 H   -3.538202   -0.138938    0.337178
 H   -3.696615    0.581888   -1.216086
 H    3.237205   -0.079603   -0.210905
 H    2.688918   -0.439880    2.067196
}
memory 8.166666666666666GB
set_num_threads(2)
psi4_io.set_default_path("/scratch/bdw2292/Psi4-4_27_Index_0-farH_in17")
set freeze_core True
E, wfn = energy('wb97x-d/6-311+G*',return_wfn=True)
oeprop(wfn,"WIBERG_LOWDIN_INDICES")
clean()
