molecule { 
0 1
 C    1.279349   -0.623000   -1.057659
 N    0.499061    0.170772   -0.049372
 C   -0.909217    0.329249   -0.468436
 C   -1.750636   -0.962016   -0.317164
 C    1.127145    1.486119    0.297899
 H   -0.971420    0.691827   -1.510295
 H   -1.413618    1.096794    0.144896
 N   -3.020052   -0.853831   -0.825032
 O   -1.350436   -1.991191    0.226649
 C    2.668691   -1.050919   -0.543292
 H    0.703655   -1.534474   -1.289530
 H    1.360102   -0.053519   -1.999638
 C    1.787073    1.437176    1.686039
 H    1.860311    1.771096   -0.474908
 H    0.377410    2.294519    0.278752
 H    2.583772   -1.575140    0.410322
 H    3.146767   -1.728285   -1.252675
 H    2.247544    2.395875    1.929324
 H    1.049902    1.212308    2.458812
 H   -3.227703   -0.143494   -1.505963
 H   -3.590850   -1.682428   -0.806777
 H    3.331302   -0.194927   -0.411857
 H    2.563253    0.672797    1.731576
}
set optking { 
  frozen_dihedral = ("
    1 2 3 4
    10 1 2 5
    13 5 2 1
    2 3 4 8
    3 4 8 20
  ")
}
set {
  geom_maxiter 400
  g_convergence GAU_LOOSE
  dynamic_level 1
}
memory 8.166666666666666GB
set_num_threads(2)
psi4_io.set_default_path("/scratch/bdw2292/Psi4-4_27_Index_0-farH_in17")
for _ in range(1):
  try:
    set opt_coordinates both
    optimize('wb97x-d/6-311G')
    break
  except OptimizationConvergenceError:
    break
  else:
    try:
      set opt_coordinates cartesian
      optimize('wb97x-d/6-311G')
      break
    except OptimizationConvergenceError:
      pass
clean()
