molecule { 
0 1
 C    0.752723    0.329607   -1.887433
 N    0.210542    0.676122   -0.583021
 C   -1.150275    0.377652   -0.264198
 C   -1.367919   -0.829118    0.657692
 C    0.951871    1.611111    0.251354
 H   -1.728367    0.213585   -1.182381
 H   -1.622012    1.234029    0.239972
 N   -2.682662   -1.166477    0.838175
 O   -0.457813   -1.415931    1.257940
 C    2.091093   -0.408840   -1.810275
 H    0.026176   -0.308358   -2.395104
 H    0.876461    1.231216   -2.510516
 C    1.702335    0.980401    1.427850
 H    1.660506    2.145489   -0.391579
 H    0.256826    2.370906    0.636182
 H    1.986787   -1.297356   -1.187288
 H    2.428149   -0.704805   -2.806701
 H    2.210174    1.752120    2.013643
 H    1.016643    0.432626    2.071479
 H   -3.396995   -0.885767    0.192005
 H   -2.888815   -1.927811    1.460490
 H    2.863887    0.225031   -1.371117
 H    2.444614    0.266393    1.070022
}
memory 8.166666666666666GB
set_num_threads(2)
psi4_io.set_default_path("/scratch/bdw2292/Psi4-4_27_Index_0-farH_in17")
set freeze_core True
E, wfn = energy('wb97x-d/6-311+G*',return_wfn=True)
oeprop(wfn,"WIBERG_LOWDIN_INDICES")
clean()
