molecule { 
0 1
 C    1.277281   -0.831746   -0.811906
 N    0.549484    0.087052    0.102192
 C   -0.949088    0.087040   -0.078827
 C   -1.736758   -1.003672   -0.882395
 C    1.103921    1.478289    0.168457
 H   -1.262995    1.048021   -0.524226
 H   -1.396732    0.105530    0.930650
 N   -3.071625   -0.704204   -1.012237
 O   -1.286224   -2.073126   -1.296617
 C    2.731307   -1.086378   -0.366477
 H    0.764146   -1.803419   -0.802534
 H    1.217046   -0.453733   -1.845895
 C    1.875080    1.703490    1.479720
 H    1.749482    1.665510   -0.705533
 H    0.301748    2.229270    0.089538
 H    2.767926   -1.421689    0.671345
 H    3.187042   -1.863650   -0.982324
 H    2.286462    2.713378    1.518161
 H    1.219735    1.574773    2.342672
 H   -3.389308    0.243707   -0.904828
 H   -3.635119   -1.340269   -1.551469
 H    3.345063   -0.190379   -0.464654
 H    2.703528    1.001512    1.578858
}
set optking { 
  frozen_dihedral = ("
    1 2 3 4
    10 1 2 5
    13 5 2 1
    2 3 4 8
    3 4 8 20
  ")
}
set {
  geom_maxiter 400
  g_convergence GAU_LOOSE
  dynamic_level 1
}
memory 8.166666666666666GB
set_num_threads(2)
psi4_io.set_default_path("/scratch/bdw2292/Psi4-4_27_Index_0-farH_in17")
for _ in range(1):
  try:
    set opt_coordinates both
    optimize('wb97x-d/6-311G')
    break
  except OptimizationConvergenceError:
    break
  else:
    try:
      set opt_coordinates cartesian
      optimize('wb97x-d/6-311G')
      break
    except OptimizationConvergenceError:
      pass
clean()
