molecule { 
0 1
 C    1.603270   -0.555893   -1.298644
 N    0.636960   -0.279860   -0.222812
 C   -0.716394   -0.547135   -0.710964
 C   -1.906294   -0.060003    0.103995
 C    0.899415    1.034149    0.420804
 H   -0.818900   -1.629636   -0.835524
 H   -0.871445   -0.108784   -1.716934
 N   -3.105715   -0.486483   -0.400688
 O   -1.869670    0.695532    1.087361
 C    3.039371   -0.695050   -0.807370
 H    1.310290   -1.496724   -1.773367
 H    1.545663    0.225770   -2.078919
 C    1.541547    0.872136    1.794795
 H    1.550075    1.628668   -0.234956
 H   -0.027602    1.584202    0.537433
 H    3.093677   -1.448443   -0.021337
 H    3.689224   -0.999184   -1.630494
 H    1.758936    1.848377    2.236321
 H    0.851841    0.342197    2.451463
 H   -3.181460   -1.280032   -1.009387
 H   -3.936476   -0.175757    0.071063
 H    3.426774    0.243241   -0.409408
 H    2.468821    0.301390    1.742228
}
memory 8.166666666666666GB
set_num_threads(2)
psi4_io.set_default_path("/scratch/bdw2292/Psi4-4_27_Index_0-farH_in17")
set freeze_core True
E, wfn = energy('wb97x-d/6-311+G*',return_wfn=True)
oeprop(wfn,"WIBERG_LOWDIN_INDICES")
clean()
