molecule { 
0 1
 C    1.601314   -0.253530   -1.415208
 N    0.665858   -0.186404   -0.257820
 C   -0.759875   -0.451843   -0.667269
 C   -2.026523    0.347320   -0.200714
 C    0.875149    0.966779    0.659623
 H   -0.957462   -1.508943   -0.413313
 H   -0.825435   -0.445393   -1.770523
 N   -3.197533   -0.219744   -0.644475
 O   -2.040041    1.395811    0.446881
 C    3.069254   -0.459650   -0.991456
 H    1.301147   -1.098048   -2.058746
 H    1.484578    0.659605   -2.023943
 C    1.546772    0.514424    1.966423
 H    1.477794    1.741934    0.158679
 H   -0.063764    1.476292    0.892960
 H    3.168740   -1.336357   -0.349320
 H    3.702707   -0.612221   -1.866730
 H    1.705799    1.365226    2.630866
 H    0.922784   -0.208665    2.494318
 H   -3.214684   -1.187063   -0.919001
 H   -4.057640    0.207086   -0.342802
 H    3.456740    0.406980   -0.454612
 H    2.515731    0.051715    1.777853
}
set optking { 
  frozen_dihedral = ("
    1 2 3 4
    10 1 2 5
    13 5 2 1
    2 3 4 8
    3 4 8 20
  ")
}
set {
  geom_maxiter 400
  g_convergence GAU_LOOSE
  dynamic_level 1
}
memory 8.166666666666666GB
set_num_threads(2)
psi4_io.set_default_path("/scratch/bdw2292/Psi4-4_27_Index_0-farH_in17")
for _ in range(1):
  try:
    set opt_coordinates both
    optimize('wb97x-d/6-311G')
    break
  except OptimizationConvergenceError:
    break
  else:
    try:
      set opt_coordinates cartesian
      optimize('wb97x-d/6-311G')
      break
    except OptimizationConvergenceError:
      pass
clean()
