molecule { 
0 1
 C    1.246533    0.161043   -1.010590
 N    0.540484    0.342809    0.253242
 C   -0.833856   -0.017314    0.533042
 C   -1.792092   -0.294190   -0.619225
 C    1.195898    1.131732    1.280978
 H   -1.286931    0.790036    1.127276
 H   -0.907555   -0.914418    1.167557
 N   -3.083214   -0.493432   -0.200558
 O   -1.491433   -0.439526   -1.814693
 C    2.552782   -0.623055   -0.858356
 H    0.589624   -0.344611   -1.708089
 H    1.469918    1.141726   -1.455622
 C    1.779689    0.306182    2.433696
 H    1.996707    1.704973    0.808467
 H    0.492699    1.869675    1.691770
 H    2.357316   -1.606114   -0.429745
 H    3.029333   -0.757613   -1.832249
 H    2.248189    0.950558    3.181005
 H    0.997726   -0.270270    2.930326
 H   -3.418419   -0.168788    0.686990
 H   -3.759268   -0.735645   -0.901761
 H    3.264010   -0.107659   -0.210486
 H    2.525481   -0.394332    2.062437
}
memory 8.166666666666666GB
set_num_threads(2)
psi4_io.set_default_path("/scratch/bdw2292/Psi4-4_27_Index_0-farH_in17")
set freeze_core True
E, wfn = energy('wb97x-d/6-311+G*',return_wfn=True)
oeprop(wfn,"WIBERG_LOWDIN_INDICES")
clean()
