molecule { 
0 1
 C    1.256282   -0.725091   -0.932691
 N    0.519912    0.142581    0.043624
 C   -0.937729    0.233207   -0.242446
 C   -1.738917   -1.056012   -0.594148
 C    1.123638    1.497123    0.243622
 H   -1.100977    0.948978   -1.069438
 H   -1.440506    0.683562    0.632212
 N   -3.035985   -0.800547   -0.963617
 O   -1.323319   -2.208281   -0.460493
 C    2.682834   -1.073896   -0.463153
 H    0.707979   -1.670285   -1.046717
 H    1.261865   -0.244513   -1.925777
 C    1.859163    1.583820    1.590977
 H    1.801774    1.735480   -0.592578
 H    0.344266    2.276813    0.204884
 H    2.665639   -1.517462    0.533987
 H    3.139692   -1.797801   -1.140123
 H    2.303006    2.571334    1.725921
 H    1.172527    1.407899    2.420696
 H   -3.296358    0.114319   -1.289653
 H   -3.600108   -1.587864   -1.236504
 H    3.327019   -0.194360   -0.442173
 H    2.659707    0.846304    1.655257
}
set optking { 
  frozen_dihedral = ("
    1 2 3 4
    10 1 2 5
    13 5 2 1
    2 3 4 8
    3 4 8 20
  ")
}
set {
  geom_maxiter 400
  g_convergence GAU_LOOSE
  dynamic_level 1
}
memory 8.166666666666666GB
set_num_threads(2)
psi4_io.set_default_path("/scratch/bdw2292/Psi4-4_27_Index_0-farH_in17")
for _ in range(1):
  try:
    set opt_coordinates both
    optimize('wb97x-d/6-311G')
    break
  except OptimizationConvergenceError:
    break
  else:
    try:
      set opt_coordinates cartesian
      optimize('wb97x-d/6-311G')
      break
    except OptimizationConvergenceError:
      pass
clean()
