molecule { 
0 1
 C    1.416619   -0.532613   -1.220915
 N    0.543899    0.141355   -0.219529
 C   -0.849264    0.278206   -0.717797
 C   -1.795261   -0.752987   -0.063264
 C    1.087409    1.423837    0.326416
 H   -0.901576    0.174138   -1.816063
 H   -1.274157    1.276264   -0.518004
 N   -3.062331   -0.749894   -0.588819
 O   -1.476729   -1.492976    0.866747
 C    2.765021   -0.992970   -0.631831
 H    0.878839   -1.420755   -1.595669
 H    1.567712    0.134644   -2.087332
 C    1.615772    1.237510    1.759047
 H    1.879109    1.810197   -0.336926
 H    0.317762    2.212386    0.327615
 H    2.609272   -1.609842    0.255395
 H    3.317908   -1.589156   -1.359737
 H    1.988891    2.180898    2.160772
 H    0.824577    0.878258    2.419951
 H   -3.224823   -0.367071   -1.504494
 H   -3.702205   -1.443151   -0.238416
 H    3.393761   -0.145266   -0.357634
 H    2.431202    0.514296    1.792155
}
set optking { 
  frozen_dihedral = ("
    1 2 3 4
    10 1 2 5
    13 5 2 1
    2 3 4 8
    3 4 8 20
  ")
}
set {
  geom_maxiter 400
  g_convergence GAU_LOOSE
  dynamic_level 1
}
memory 8.166666666666666GB
set_num_threads(2)
psi4_io.set_default_path("/scratch/bdw2292/Psi4-4_27_Index_0-farH_in17")
for _ in range(1):
  try:
    set opt_coordinates both
    optimize('wb97x-d/6-311G')
    break
  except OptimizationConvergenceError:
    break
  else:
    try:
      set opt_coordinates cartesian
      optimize('wb97x-d/6-311G')
      break
    except OptimizationConvergenceError:
      pass
clean()
