molecule { 
0 1
 C    1.325824   -0.674656   -0.830508
 N    0.518948    0.516095   -0.578813
 C   -0.897497    0.529290   -0.311928
 C   -1.584151   -0.781173    0.047197
 C    1.209968    1.780509   -0.378411
 H   -1.460124    0.967388   -1.158188
 H   -1.110946    1.184869    0.542288
 N   -2.944255   -0.667588    0.146470
 O   -1.011302   -1.837298    0.356022
 C    2.239957   -1.070859    0.331539
 H    0.669075   -1.505057   -1.064648
 H    1.941446   -0.489874   -1.722075
 C    1.266724    2.281054    1.073021
 H    2.226504    1.660731   -0.758586
 H    0.742456    2.559172   -0.999277
 H    1.636974   -1.294248    1.211810
 H    2.820245   -1.960753    0.075059
 H    1.824894    3.218469    1.129892
 H    0.270301    2.471119    1.477118
 H   -3.452985    0.080088   -0.287002
 H   -3.455548   -1.479924    0.441958
 H    2.943355   -0.271463    0.577244
 H    1.754390    1.545977    1.713864
}
memory 8.166666666666666GB
set_num_threads(2)
psi4_io.set_default_path("/scratch/bdw2292/Psi4-4_27_Index_0-farH_in17")
set freeze_core True
E, wfn = energy('wb97x-d/6-311+G*',return_wfn=True)
oeprop(wfn,"WIBERG_LOWDIN_INDICES")
clean()
