molecule { 
0 1
 C    1.808587   -0.522140    0.406695
 N    0.638639    0.290149    0.175309
 C   -0.580544   -0.327329    0.653195
 C   -1.364699   -0.985371   -0.456548
 C    0.809532    1.662146    0.590789
 H   -0.400414   -1.083943    1.434510
 H   -1.247617    0.421543    1.096590
 O   -1.073983   -1.010891   -1.614849
 H    0.989430    1.767281    1.674343
 H   -0.077163    2.235097    0.325630
 H    1.628467   -1.523007    0.017984
 H    2.076468   -0.595245    1.474302
 H    2.649780   -0.095434   -0.137285
 H   -2.293344   -1.470062   -0.081843
 H    1.661980    2.083978    0.060514
}
memory 20GB
set_num_threads(5)
psi4_io.set_default_path("/scratch/liuchw/Psi4-4_27_Index_0-farH_in17")
set freeze_core True
E, wfn = energy('wb97x-d/6-311+G*',return_wfn=True)
oeprop(wfn,"WIBERG_LOWDIN_INDICES")
clean()
