molecule { 
0 1
 C    1.968309   -0.381556    0.912827
 N    0.861352    0.011309    0.070181
 C   -0.318975   -0.765071    0.386128
 C   -1.657358   -0.354017   -0.156661
 C    0.676771    1.447687    0.051317
 H   -0.149804   -1.795517    0.048434
 H   -0.485580   -0.824529    1.484319
 O   -1.953199    0.579574   -0.845286
 H    0.426228    1.855874    1.044040
 H   -0.114220    1.706902   -0.643949
 H    2.101446   -1.461718    0.857829
 H    1.823721   -0.099084    1.968523
 H    2.876055    0.093609    0.544929
 H   -2.435418   -1.072508    0.181263
 H    1.605792    1.905813   -0.284555
}
memory 20GB
set_num_threads(5)
psi4_io.set_default_path("/scratch/liuchw/Psi4-4_27_Index_0-farH_in17")
set freeze_core True
E, wfn = energy('wb97x-d/6-311+G*',return_wfn=True)
oeprop(wfn,"WIBERG_LOWDIN_INDICES")
clean()
