molecule { 
0 1
 C    1.598487   -0.331751   -0.339350
 N    0.584867    0.596634    0.106524
 C   -0.775820    0.111558    0.164228
 C   -1.067177   -1.354165    0.371332
 C    0.999179    1.408490    1.225665
 H   -1.334942    0.665944    0.922532
 H   -1.264016    0.336246   -0.801850
 O   -0.299478   -2.265657    0.492667
 H    1.219623    0.821435    2.132363
 H    0.219994    2.130908    1.463624
 H    1.234773   -0.867397   -1.213486
 H    1.891099   -1.061854    0.424734
 H    2.481230    0.243022   -0.624809
 H   -2.164609   -1.537461    0.350162
 H    1.901909    1.950817    0.945000
}
memory 20GB
set_num_threads(5)
psi4_io.set_default_path("/scratch/liuchw/Psi4-4_27_Index_0-farH_in17")
set freeze_core True
E, wfn = energy('wb97x-d/6-311+G*',return_wfn=True)
oeprop(wfn,"WIBERG_LOWDIN_INDICES")
clean()
