molecule { 
0 1
 C    1.697563   -0.521066    0.233972
 N    0.595744    0.408210    0.112671
 C   -0.646266   -0.162632    0.580402
 C   -1.235645   -1.182845   -0.356894
 C    0.886527    1.679459    0.737553
 H   -0.560386   -0.638786    1.578598
 H   -1.394512    0.632451    0.674544
 O   -0.796148   -1.533362   -1.411740
 H    1.050602    1.595977    1.824788
 H    0.062221    2.369230    0.561406
 H    1.450342   -1.438317   -0.295085
 H    1.932465   -0.763320    1.283916
 H    2.579801   -0.085716   -0.231627
 H   -2.182938   -1.606720    0.041523
 H    1.785749    2.094207    0.285310
}
memory 20GB
set_num_threads(5)
psi4_io.set_default_path("/scratch/liuchw/Psi4-4_27_Index_0-farH_in17")
set freeze_core True
E, wfn = energy('wb97x-d/6-311+G*',return_wfn=True)
oeprop(wfn,"WIBERG_LOWDIN_INDICES")
clean()
