molecule { 
0 1
N          3.14360       -0.07970       -1.31840
C          4.27360       -0.72380       -0.77230
C          5.63270       -0.41540       -1.45740
N          6.77980       -0.97640       -0.69930
O          4.24840       -1.46710        0.21310
H          5.59360       -0.89410       -2.44300
H          5.76130        0.66570       -1.57720
C          1.83080       -0.22030       -0.72870
C         -0.79870       -0.46170        0.40860
C          0.17590       -1.45560        0.57390
C         -0.43520        0.64590       -0.34920
C          1.46150       -1.33920        0.02120
C          0.85060        0.76730       -0.90610
C          3.25610        0.84160       -2.45310
C          8.00570       -1.03030       -1.50710
C          7.01080       -0.26460        0.57220
H         -0.06130       -2.35900        1.13380
H         -1.12070        1.46840       -0.50880
H          2.13470       -2.17740        0.17120
H          1.05380        1.68270       -1.45390
H          2.36200        0.79340       -3.08310
H          3.40630        1.85620       -2.07160
H          4.09560        0.58360       -3.10140
H          7.82460       -1.60220       -2.42480
H          8.31500       -0.02010       -1.80480
H          7.29200        0.77860        0.37700
H          6.10830       -0.24010        1.19050
H         -1.73780       -0.54770        0.82780
H          8.76750       -1.49230       -0.91450
H          7.79020       -0.79130        1.08220
}
memory 49GB
set_num_threads(12)
psi4_io.set_default_path("/scratch/bdw2292/Psi4-farH_in17")
set maxiter 500
set freeze_core True
set PROPERTIES_ORIGIN ["COM"]
set cubeprop_tasks ['esp']
set basis MINIX 
E, wfn = properties('hf',properties=['dipole'],return_wfn=True)
cubeprop(wfn)
fchk(wfn, "farH_in17-esp_frag.fchk")
oeprop(wfn,"WIBERG_LOWDIN_INDICES","MULLIKEN_CHARGES")
clean()
