molecule { 
0 1
 N    1.750685   -0.557772    1.091808
 C    0.625131   -0.219720    0.423927
 C   -0.234482   -1.318791   -0.047449
 C   -1.612035   -1.298714    0.159677
 C    0.294913    1.108628    0.287574
 C    0.323586   -2.392440   -0.740012
 H    2.364605    0.233194    1.295883
 C   -0.880985    1.762398   -0.224171
 N    0.554604    3.345822    0.432399
 C    1.200783    2.174613    0.714864
 C   -0.686328    3.091886   -0.125251
 C   -0.474417   -3.417259   -1.213134
 C   -2.405978   -2.329816   -0.306721
 C   -1.842066   -3.388912   -0.998775
 H    1.386450   -2.413564   -0.938365
 H   -2.050040   -0.494417    0.729250
 H    0.932874    4.258809    0.620464
 O    2.322761    2.089761    1.215086
 H   -0.028125   -4.238596   -1.754418
 H   -3.471218   -2.307521   -0.129343
 H   -2.465155   -4.189723   -1.368109
 H   -1.736598    1.279476   -0.650794
 H   -1.333507    3.902594   -0.399830
 H    2.188926   -1.442528    0.896284
}
memory 20GB
set_num_threads(5)
psi4_io.set_default_path("/scratch/liuchw/Psi4-7_11_Index_0-farH_in17")
set freeze_core True
E, wfn = energy('wb97x-d/6-311+G*',return_wfn=True)
oeprop(wfn,"WIBERG_LOWDIN_INDICES")
clean()
