molecule { 
0 1
 N    1.251076    0.345846   -1.599716
 C    0.427757    0.104229   -0.552841
 C   -0.303804   -1.169914   -0.549492
 C    0.061437   -2.191867   -1.431981
 C    0.407065    1.033440    0.471220
 C   -1.491253   -1.327955    0.168914
 H    1.646436    1.289148   -1.607006
 C   -0.203808    1.045268    1.774370
 N    0.689617    3.062890    1.428677
 C    1.006457    2.358563    0.301587
 C   -0.004275    2.263210    2.316931
 C   -2.223983   -2.496660    0.084344
 C   -0.670315   -3.360618   -1.512627
 C   -1.813837   -3.523637   -0.748949
 H   -1.864926   -0.515874    0.768789
 H    0.969522   -2.106550   -2.010705
 H    0.987752    4.007765    1.602867
 O    1.643330    2.814465   -0.650514
 H   -3.132598   -2.599022    0.659474
 H   -0.352390   -4.144672   -2.184343
 H   -2.387751   -4.435770   -0.814840
 H   -0.661519    0.214819    2.272251
 H   -0.301219    2.643896    3.275140
 H    1.045619   -0.073583   -2.490713
}
memory 20GB
set_num_threads(5)
psi4_io.set_default_path("/scratch/liuchw/Psi4-7_11_Index_0-farH_in17")
set freeze_core True
E, wfn = energy('wb97x-d/6-311+G*',return_wfn=True)
oeprop(wfn,"WIBERG_LOWDIN_INDICES")
clean()
