molecule { 
0 1
 N    1.553027   -0.574883    1.409099
 C    0.568068   -0.219453    0.555524
 C   -0.275633   -1.297114   -0.007484
 C   -1.556800   -1.515402    0.485709
 C    0.318661    1.100822    0.296871
 C    0.225094   -2.128170   -1.003208
 H    2.167534    0.196120    1.673110
 C   -0.749713    1.726094   -0.438178
 N    0.636742    3.328946    0.279417
 C    1.190886    2.175851    0.763543
 C   -0.525098    3.053502   -0.425089
 C   -0.555162   -3.149382   -1.515703
 C   -2.331585   -2.541317   -0.024904
 C   -1.833570   -3.358063   -1.026628
 H    1.221729   -1.961372   -1.387302
 H   -1.939125   -0.874572    1.266052
 H    1.012251    4.248194    0.441314
 O    2.222404    2.101988    1.429215
 H   -0.163046   -3.785026   -2.295988
 H   -3.326566   -2.705866    0.361678
 H   -2.440720   -4.157278   -1.425133
 H   -1.564570    1.210516   -0.906308
 H   -1.096488    3.852577   -0.857054
 H    1.966064   -1.489303    1.322290
}
memory 20GB
set_num_threads(5)
psi4_io.set_default_path("/scratch/liuchw/Psi4-7_11_Index_0-farH_in17")
set freeze_core True
E, wfn = energy('wb97x-d/6-311+G*',return_wfn=True)
oeprop(wfn,"WIBERG_LOWDIN_INDICES")
clean()
