molecule { 
0 1
 N    1.511594    0.159583   -1.319794
 C    0.437812    0.082279   -0.502141
 C   -0.393600   -1.132338   -0.609243
 C   -0.303348   -1.962364   -1.733337
 C    0.267938    1.111808    0.412963
 C   -1.144142   -1.611697    0.467387
 H    1.991689    1.064598   -1.292601
 C   -0.624742    1.338163    1.520577
 N    0.751311    3.091276    1.411602
 C    1.153971    2.280884    0.389333
 C   -0.311390    2.522999    2.082766
 C   -1.840433   -2.802960    0.390048
 C   -1.002041   -3.151102   -1.813887
 C   -1.784091   -3.577880   -0.754851
 H   -1.152600   -1.073982    1.396719
 H    0.267550   -1.663114   -2.600606
 H    1.189132    3.968085    1.638135
 O    2.082584    2.553637   -0.377012
 H   -2.417061   -3.136725    1.240313
 H   -0.924620   -3.753935   -2.706994
 H   -2.327233   -4.508895   -0.815581
 H   -1.454117    0.736265    1.827929
 H   -0.756882    3.018857    2.923528
 H    1.507108   -0.316028   -2.204412
}
memory 20GB
set_num_threads(5)
psi4_io.set_default_path("/scratch/liuchw/Psi4-7_11_Index_0-farH_in17")
set freeze_core True
E, wfn = energy('wb97x-d/6-311+G*',return_wfn=True)
oeprop(wfn,"WIBERG_LOWDIN_INDICES")
clean()
