molecule { 
0 1
 N    1.971553   -0.173888   -0.825295
 C    0.720910   -0.061566   -0.326952
 C   -0.182179   -1.225731   -0.467644
 C   -0.785714   -1.498546   -1.689897
 C    0.346793    1.064284    0.354994
 C   -0.456778   -2.036932    0.627311
 H    2.505631    0.695701   -0.798322
 C   -0.850115    1.357987    1.099084
 N    0.469299    3.164093    1.156989
 C    1.188537    2.256083    0.429618
 C   -0.738760    2.617616    1.561428
 C   -1.305794   -3.120650    0.492625
 C   -1.639538   -2.579627   -1.818982
 C   -1.897140   -3.394353   -0.729600
 H    0.005869   -1.816392    1.577533
 H   -0.588962   -0.857754   -2.537925
 H    0.794353    4.088425    1.385482
 O    2.299944    2.451298   -0.059821
 H   -1.508065   -3.753147    1.344387
 H   -2.106157   -2.784700   -2.771235
 H   -2.560888   -4.240000   -0.832287
 H   -1.671653    0.684776    1.243097
 H   -1.418604    3.194041    2.159022
 H    2.131847   -0.793604   -1.602771
}
memory 20GB
set_num_threads(5)
psi4_io.set_default_path("/scratch/liuchw/Psi4-7_11_Index_0-farH_in17")
set freeze_core True
E, wfn = energy('wb97x-d/6-311+G*',return_wfn=True)
oeprop(wfn,"WIBERG_LOWDIN_INDICES")
clean()
