molecule { 
0 1
 C   -0.764590    1.522901   -0.415621
 C   -0.763871    0.348585    0.306783
 N    0.330756    0.081365    1.169042
 C    1.679465   -0.288798    0.826044
 H    0.008820   -0.427382    1.992941
 C   -1.081645    2.847989    0.086751
 N   -0.642145    3.030555   -2.121856
 C   -0.465953    1.675957   -1.881694
 C   -0.995117    3.708301   -0.962804
 C   -1.872208   -0.639546    0.328435
 C   -3.203648   -0.234568    0.593763
 C   -1.602517   -2.012639    0.107466
 C   -4.237114   -1.179126    0.629922
 C   -2.638521   -2.953823    0.143653
 C   -3.962141   -2.543431    0.404065
 C    2.136524   -0.415404   -0.511265
 C    2.613432   -0.513318    1.868983
 C    3.466025   -0.764694   -0.786541
 C    3.939469   -0.866961    1.585982
 C    4.394553   -1.009558    0.253559
 H   -0.514074    3.428040   -3.041259
 O   -0.131338    0.862563   -2.747819
 H   -3.424525    0.818989    0.771814
 H   -0.579040   -2.334130   -0.092177
 H   -5.257123   -0.851336    0.835598
 H   -2.413909   -4.007112   -0.029945
 H   -4.769271   -3.277456    0.431150
 H    1.471013   -0.253708   -1.360616
 H    2.310741   -0.407102    2.913500
 H    3.776603   -0.847049   -1.830548
 H    4.624788   -1.029687    2.420797
 N    5.746388   -1.365151   -0.031707
 H   -1.340911    3.097769    1.105375
 H   -1.159939    4.776357   -0.998817
 H    5.855069   -1.859361   -0.917982
 H    6.191725   -1.909395    0.707662
}
set optking { 
  frozen_dihedral = ("
    16 4 3 2
    1 2 10 11
    1 2 10 12
    3 2 10 11
    1 2 3 4
    10 2 3 4
    18 20 32 35
  ")
}
set {
  geom_maxiter 400
  g_convergence GAU_LOOSE
  dynamic_level 1
}
memory 8.333333333333334GB
set_num_threads(1)
psi4_io.set_default_path("/scratch/bdw2292/Psi4-7_1_Index_0_GrowFragment_0-farH_in17")
for _ in range(1):
  try:
    set opt_coordinates both
    optimize('wb97x-d/6-311G')
    break
  except OptimizationConvergenceError:
    break
  else:
    try:
      set opt_coordinates cartesian
      optimize('wb97x-d/6-311G')
      break
    except OptimizationConvergenceError:
      pass
clean()
