molecule { 
0 1
 C   -0.623150    1.243894   -0.810911
 C   -0.758972   -0.103119   -0.538433
 N    0.373338   -0.959847   -0.607485
 C    1.699932   -0.843021   -0.055619
 H    0.466325   -1.228484   -1.590648
 C   -0.685190    2.361894    0.114230
 N   -0.320654    3.192192   -1.956412
 C   -0.387259    1.824484   -2.179475
 C   -0.496006    3.495551   -0.613159
 C   -2.006173   -0.773736   -0.089781
 C   -2.741517   -0.281991    1.018320
 C   -2.457857   -1.951485   -0.737793
 C   -3.901391   -0.936721    1.450308
 C   -3.617295   -2.604528   -0.301945
 C   -4.347490   -2.100837    0.793173
 C    2.640581   -1.865784   -0.345151
 C    2.120441    0.216866    0.787582
 C    3.944234   -1.817478    0.166568
 C    3.425530    0.258229    1.298499
 C    4.365475   -0.758924    1.005567
 H   -0.160590    3.843743   -2.711068
 O   -0.265690    1.301593   -3.290339
 H   -2.401719    0.611857    1.541557
 H   -1.898331   -2.352072   -1.584201
 H   -4.457288   -0.539252    2.300741
 H   -3.952346   -3.506359   -0.816463
 H   -5.251610   -2.609784    1.131153
 H    2.357717   -2.711331   -0.976862
 H    1.440732    1.022499    1.060851
 H    4.637540   -2.619898   -0.095374
 H    3.709810    1.099369    1.934721
 N    5.694635   -0.709060    1.521894
 H   -0.844909    2.302117    1.181320
 H   -0.468081    4.528137   -0.292178
 H    6.121470   -1.628360    1.641272
 H    5.771524   -0.191700    2.398171
}
set optking { 
  frozen_dihedral = ("
    1 2 3 4
    10 2 3 4
    1 2 10 11
    1 2 10 12
    3 2 10 11
    16 4 3 2
    18 20 32 35
  ")
}
set {
  geom_maxiter 400
  g_convergence GAU_LOOSE
  dynamic_level 1
}
memory 8.333333333333334GB
set_num_threads(1)
psi4_io.set_default_path("/scratch/bdw2292/Psi4-7_1_Index_0_GrowFragment_0-farH_in17")
for _ in range(1):
  try:
    set opt_coordinates both
    optimize('wb97x-d/6-311G')
    break
  except OptimizationConvergenceError:
    break
  else:
    try:
      set opt_coordinates cartesian
      optimize('wb97x-d/6-311G')
      break
    except OptimizationConvergenceError:
      pass
clean()
