molecule { 
0 1
 C   -0.664915    1.457276    0.508611
 C   -0.778176    0.083343    0.483800
 N    0.175000   -0.672710    1.215663
 C    1.549019   -0.843786    0.836671
 H   -0.230997   -1.520499    1.612079
 C   -0.635395    2.314292    1.680811
 N   -0.478231    3.631521   -0.147941
 C   -0.560334    2.357619   -0.693035
 C   -0.521606    3.595229    1.239182
 C   -1.885906   -0.662780   -0.169752
 C   -3.234197   -0.326993    0.113552
 C   -1.621648   -1.751683   -1.035803
 C   -4.284158   -1.053198   -0.462416
 C   -2.673547   -2.478601   -1.607016
 C   -4.011186   -2.132992   -1.326407
 C    2.526946    0.053671    1.326703
 C    1.967776   -1.905205    0.000648
 C    3.874711   -0.092713    0.972044
 C    3.316543   -2.044160   -0.355046
 C    4.298728   -1.136456    0.112652
 H   -0.399398    4.451295   -0.732524
 O   -0.548757    2.133932   -1.903842
 H   -3.455814    0.500723    0.789195
 H   -0.590653   -2.016749   -1.267770
 H   -5.315305   -0.779331   -0.234025
 H   -2.450779   -3.314274   -2.272092
 H   -4.830123   -2.697732   -1.775302
 H    2.235275    0.873256    1.986847
 H    1.245341   -2.633227   -0.372442
 H    4.601918    0.617047    1.372478
 H    3.602419   -2.875921   -1.002669
 N    5.671214   -1.282607   -0.249143
 H   -0.693111    1.988072    2.709316
 H   -0.467458    4.518922    1.799111
 H    6.184675   -0.400363   -0.251075
 H    5.807893   -1.745567   -1.148426
}
set optking { 
  frozen_dihedral = ("
    16 4 3 2
    1 2 10 11
    1 2 10 12
    3 2 10 11
    1 2 3 4
    10 2 3 4
    18 20 32 35
  ")
}
set {
  geom_maxiter 400
  g_convergence GAU_LOOSE
  dynamic_level 1
}
memory 8.333333333333334GB
set_num_threads(1)
psi4_io.set_default_path("/scratch/bdw2292/Psi4-7_1_Index_0_GrowFragment_0-farH_in17")
for _ in range(1):
  try:
    set opt_coordinates both
    optimize('wb97x-d/6-311G')
    break
  except OptimizationConvergenceError:
    break
  else:
    try:
      set opt_coordinates cartesian
      optimize('wb97x-d/6-311G')
      break
    except OptimizationConvergenceError:
      pass
clean()
