molecule { 
0 1
 C   -0.717697    1.509919    0.601630
 C   -0.783607    0.138151    0.481571
 N    0.185421   -0.662287    1.134966
 C    1.569119   -0.840622    0.800691
 H   -0.216775   -1.394391    1.720142
 C   -0.700883    2.281497    1.831926
 N   -0.602635    3.731420    0.103448
 C   -0.651816    2.498231   -0.532090
 C   -0.631887    3.594212    1.484160
 C   -1.865949   -0.606386   -0.208819
 C   -3.228091   -0.360948    0.093617
 C   -1.542596   -1.613238   -1.151913
 C   -4.237858   -1.099016   -0.537040
 C   -2.554584   -2.349004   -1.780180
 C   -3.908270   -2.097301   -1.476667
 C    2.484238    0.238748    0.819472
 C    2.043405   -2.118376    0.419589
 C    3.826373    0.044266    0.465721
 C    3.386864   -2.307343    0.069402
 C    4.306324   -1.229861    0.073013
 H   -0.551430    4.593181   -0.420757
 O   -0.641591    2.363426   -1.755369
 H   -3.491092    0.404833    0.824961
 H   -0.495901   -1.811068   -1.387888
 H   -5.282099   -0.898010   -0.293230
 H   -2.288800   -3.119549   -2.505249
 H   -4.696308   -2.672364   -1.965835
 H    2.156143    1.236965    1.114215
 H    1.363636   -2.973253    0.392103
 H    4.504719    0.899647    0.498649
 H    3.716553   -3.310307   -0.210593
 N    5.672924   -1.425326   -0.287138
 H   -0.730715    1.880492    2.834698
 H   -0.597268    4.475720    2.109839
 H    6.111344   -0.589885   -0.676639
 H    5.816552   -2.203522   -0.931771
}
set optking { 
  frozen_dihedral = ("
    16 4 3 2
    1 2 10 11
    1 2 10 12
    3 2 10 11
    1 2 3 4
    10 2 3 4
    18 20 32 35
  ")
}
set {
  geom_maxiter 400
  g_convergence GAU_LOOSE
  dynamic_level 1
}
memory 8.333333333333334GB
set_num_threads(1)
psi4_io.set_default_path("/scratch/bdw2292/Psi4-7_1_Index_0_GrowFragment_0-farH_in17")
for _ in range(1):
  try:
    set opt_coordinates both
    optimize('wb97x-d/6-311G')
    break
  except OptimizationConvergenceError:
    break
  else:
    try:
      set opt_coordinates cartesian
      optimize('wb97x-d/6-311G')
      break
    except OptimizationConvergenceError:
      pass
clean()
