molecule { 
0 1
 C   -0.831709    1.853923    0.193567
 C   -0.747596    0.486031    0.357981
 N    0.223349    0.008986    1.276761
 C    1.508600   -0.557202    0.959413
 H   -0.247916   -0.547589    1.992464
 C    0.224116    2.735146   -0.276461
 N   -1.590748    4.006639    0.160668
 C   -2.027039    2.727269    0.471430
 C   -0.274389    4.000096   -0.279865
 C   -1.642998   -0.533369   -0.260282
 C   -3.049118   -0.390146   -0.135113
 C   -1.140250   -1.696158   -0.898040
 C   -3.918665   -1.349363   -0.667918
 C   -2.011965   -2.653555   -1.432400
 C   -3.406575   -2.485145   -1.324846
 C    2.330100   -1.030898    2.012567
 C    2.023429   -0.616622   -0.361357
 C    3.591154   -1.583139    1.750896
 C    3.285934   -1.169186   -0.616736
 C    4.099413   -1.663461    0.431767
 H   -2.192778    4.811806    0.256308
 O   -3.168953    2.477288    0.880238
 H   -3.461957    0.477725    0.383669
 H   -0.065496   -1.854789   -0.972871
 H   -4.995952   -1.209827   -0.567638
 H   -1.602101   -3.533689   -1.930202
 H   -4.085165   -3.230789   -1.742562
 H    1.984628   -0.974143    3.047462
 H    1.444013   -0.229265   -1.202057
 H    4.181988   -1.955908    2.590599
 H    3.637369   -1.212953   -1.650038
 N    5.377897   -2.237347    0.166881
 H    1.223711    2.436835   -0.558928
 H    0.199212    4.931394   -0.558581
 H    6.036460   -2.144517    0.940880
 H    5.815760   -1.885429   -0.685023
}
set optking { 
  frozen_dihedral = ("
    1 2 3 4
    10 2 3 4
    1 2 10 11
    1 2 10 12
    3 2 10 11
    16 4 3 2
    18 20 32 35
  ")
}
set {
  geom_maxiter 400
  g_convergence GAU_LOOSE
  dynamic_level 1
}
memory 8.333333333333334GB
set_num_threads(1)
psi4_io.set_default_path("/scratch/bdw2292/Psi4-7_1_Index_0_GrowFragment_0-farH_in17")
for _ in range(1):
  try:
    set opt_coordinates both
    optimize('wb97x-d/6-311G')
    break
  except OptimizationConvergenceError:
    break
  else:
    try:
      set opt_coordinates cartesian
      optimize('wb97x-d/6-311G')
      break
    except OptimizationConvergenceError:
      pass
clean()
