molecule { 
0 1
 C   -0.758425    1.499321    0.693966
 C   -0.783011    0.137118    0.470934
 N    0.205292   -0.706475    1.037232
 C    1.591479   -0.862770    0.695071
 H    0.023073   -0.889525    2.024322
 C   -0.787338    2.180324    1.976678
 N   -0.725488    3.754715    0.358088
 C   -0.715222    2.569952   -0.364263
 C   -0.764409    3.516548    1.724730
 C   -1.855992   -0.575395   -0.264183
 C   -3.219829   -0.388311    0.072169
 C   -1.522710   -1.489913   -1.294065
 C   -4.221157   -1.089296   -0.611927
 C   -2.526300   -2.189017   -1.975450
 C   -3.881525   -1.992896   -1.639569
 C    2.395497    0.191244    0.196676
 C    2.185462   -2.138295    0.851341
 C    3.744299   -0.023869   -0.120026
 C    3.534349   -2.347352    0.535498
 C    4.343530   -1.297750    0.036856
 H   -0.706286    4.653759   -0.101852
 O   -0.676475    2.525572   -1.593168
 H   -3.490706    0.304732    0.870128
 H   -0.475037   -1.647220   -1.554902
 H   -5.266620   -0.932324   -0.342148
 H   -2.252572   -2.887104   -2.767878
 H   -4.662875   -2.538320   -2.171433
 H    1.982063    1.189549    0.052479
 H    1.592245   -2.977146    1.222326
 H    4.333119    0.817603   -0.491957
 H    3.955725   -3.344258    0.682637
 N    5.718433   -1.511663   -0.277414
 H   -0.816911    1.710042    2.949098
 H   -0.772770    4.351422    2.412231
 H    6.070484   -0.888570   -1.004962
 H    5.932370   -2.475778   -0.534627
}
set optking { 
  frozen_dihedral = ("
    16 4 3 2
    1 2 10 11
    1 2 10 12
    3 2 10 11
    1 2 3 4
    10 2 3 4
    18 20 32 35
  ")
}
set {
  geom_maxiter 400
  g_convergence GAU_LOOSE
  dynamic_level 1
}
memory 8.333333333333334GB
set_num_threads(1)
psi4_io.set_default_path("/scratch/bdw2292/Psi4-7_1_Index_0_GrowFragment_0-farH_in17")
for _ in range(1):
  try:
    set opt_coordinates both
    optimize('wb97x-d/6-311G')
    break
  except OptimizationConvergenceError:
    break
  else:
    try:
      set opt_coordinates cartesian
      optimize('wb97x-d/6-311G')
      break
    except OptimizationConvergenceError:
      pass
clean()
