molecule { 
0 1
 C   -0.743237    1.625851    0.060544
 C   -0.766715    0.277654    0.354362
 N    0.281680   -0.317027    1.100442
 C    1.634899   -0.627125    0.730102
 H    0.195746   -0.102408    2.094278
 C   -1.027747    2.717006    0.975880
 N   -0.584946    3.610257   -1.051205
 C   -0.452808    2.248240   -1.278742
 C   -0.917961    3.874230    0.269986
 C   -1.887437   -0.637026    0.028215
 C   -3.219306   -0.319634    0.394367
 C   -1.626085   -1.884108   -0.592308
 C   -4.261899   -1.214589    0.121756
 C   -2.670639   -2.776323   -0.863004
 C   -3.995329   -2.446473   -0.510307
 C    2.249055   -1.759322    1.319515
 C    2.389494    0.131132   -0.197818
 C    3.571000   -2.105557    1.008230
 C    3.711315   -0.219805   -0.506030
 C    4.336418   -1.338238    0.097059
 H   -0.446191    4.285550   -1.789219
 O   -0.141809    1.769673   -2.368853
 H   -3.432596    0.627242    0.892907
 H   -0.601357   -2.146893   -0.859713
 H   -5.282572   -0.952460    0.404485
 H   -2.452275   -3.729189   -1.347481
 H   -4.809135   -3.141867   -0.722999
 H    1.691602   -2.379969    2.024993
 H    1.959068    0.997322   -0.698386
 H    4.005950   -2.987930    1.483061
 H    4.256632    0.389517   -1.230285
 N    5.681293   -1.693921   -0.219921
 H   -1.281017    2.623358    2.022241
 H   -1.052468    4.897970    0.591777
 H    6.163119   -2.183575    0.534608
 H    6.252022   -0.902922   -0.519899
}
set optking { 
  frozen_dihedral = ("
    16 4 3 2
    1 2 10 11
    1 2 10 12
    3 2 10 11
    1 2 3 4
    10 2 3 4
    18 20 32 35
  ")
}
set {
  geom_maxiter 400
  g_convergence GAU_LOOSE
  dynamic_level 1
}
memory 8.333333333333334GB
set_num_threads(1)
psi4_io.set_default_path("/scratch/bdw2292/Psi4-7_1_Index_0_GrowFragment_0-farH_in17")
for _ in range(1):
  try:
    set opt_coordinates both
    optimize('wb97x-d/6-311G')
    break
  except OptimizationConvergenceError:
    break
  else:
    try:
      set opt_coordinates cartesian
      optimize('wb97x-d/6-311G')
      break
    except OptimizationConvergenceError:
      pass
clean()
