molecule { 
0 1
 C   -0.684396    1.515223    0.326859
 C   -0.788887    0.132261    0.378725
 N    0.160443   -0.593976    1.149374
 C    1.545618   -0.829287    0.848489
 H   -0.269258   -1.405451    1.594610
 C    0.271218    2.362104    1.027568
 N   -1.029740    3.717976   -0.216377
 C   -1.535469    2.456766   -0.493101
 C    0.027368    3.651917    0.675826
 C   -1.889159   -0.673062   -0.232855
 C   -3.240178   -0.330493    0.039788
 C   -1.636218   -1.822093   -1.023724
 C   -4.293522   -1.096149   -0.474606
 C   -2.691527   -2.585229   -1.539158
 C   -4.026670   -2.227741   -1.269145
 C    2.519710   -0.402706    1.783706
 C    1.991700   -1.442261   -0.345163
 C    3.886417   -0.583606    1.533103
 C    3.359530   -1.626057   -0.590087
 C    4.338341   -1.192904    0.337203
 H   -1.417943    4.549830   -0.637365
 O   -2.485788    2.276986   -1.256488
 H   -3.465692    0.540564    0.656161
 H   -0.612896   -2.123158   -1.234475
 H   -5.322827   -0.811828   -0.251590
 H   -2.471341   -3.463063   -2.148553
 H   -4.847953   -2.823902   -1.670069
 H    2.208664    0.069703    2.718225
 H    1.278984   -1.774533   -1.097422
 H    4.605187   -0.246252    2.283334
 H    3.662743   -2.112329   -1.519958
 N    5.729356   -1.380661    0.084014
 H    1.041673    2.022763    1.703616
 H    0.524560    4.560902    0.985166
 H    6.322219   -0.683737    0.536106
 H    5.961497   -1.417867   -0.909100
}
set optking { 
  frozen_dihedral = ("
    16 4 3 2
    1 2 10 11
    1 2 10 12
    3 2 10 11
    1 2 3 4
    10 2 3 4
    18 20 32 35
  ")
}
set {
  geom_maxiter 400
  g_convergence GAU_LOOSE
  dynamic_level 1
}
memory 8.333333333333334GB
set_num_threads(1)
psi4_io.set_default_path("/scratch/bdw2292/Psi4-7_1_Index_0_GrowFragment_0-farH_in17")
for _ in range(1):
  try:
    set opt_coordinates both
    optimize('wb97x-d/6-311G')
    break
  except OptimizationConvergenceError:
    break
  else:
    try:
      set opt_coordinates cartesian
      optimize('wb97x-d/6-311G')
      break
    except OptimizationConvergenceError:
      pass
clean()
