molecule { 
0 1
 C   -1.061969    2.188334    0.211607
 C   -0.484725    0.958730   -0.067007
 N    0.872310    0.753315    0.341378
 C    1.805367   -0.337976    0.487799
 H    1.067337    1.394032    1.113933
 C   -0.642192    3.469095   -0.330831
 N   -2.379821    3.849473    1.058825
 C   -2.229960    2.471483    1.120549
 C   -1.449908    4.423468    0.203493
 C   -1.237769   -0.179292   -0.661310
 C   -2.463416   -0.615730   -0.099007
 C   -0.724763   -0.868376   -1.790044
 C   -3.155847   -1.700069   -0.652075
 C   -1.418746   -1.953142   -2.340255
 C   -2.639201   -2.375477   -1.776231
 C    3.099788   -0.032389    0.993984
 C    1.506172   -1.707367    0.270280
 C    4.058263   -1.033546    1.199768
 C    2.472281   -2.704508    0.467897
 C    3.774518   -2.390325    0.921962
 H   -3.093004    4.329688    1.588926
 O   -2.956019    1.738399    1.801832
 H   -2.869560   -0.107714    0.778129
 H    0.221380   -0.547052   -2.228598
 H   -4.097036   -2.019667   -0.202738
 H   -1.004347   -2.470821   -3.206512
 H   -3.180023   -3.220645   -2.205608
 H    3.373274    1.000987    1.223149
 H    0.512962   -2.029423   -0.030427
 H    5.040039   -0.745441    1.582388
 H    2.196791   -3.743746    0.273980
 N    4.754583   -3.407096    1.123293
 H    0.173330    3.628096   -1.021750
 H   -1.447839    5.494584    0.054949
 H    5.714025   -3.075788    1.018151
 H    4.619485   -4.225442    0.528754
}
set optking { 
  frozen_dihedral = ("
    1 2 3 4
    10 2 3 4
    1 2 10 11
    1 2 10 12
    3 2 10 11
    16 4 3 2
    18 20 32 35
  ")
}
set {
  geom_maxiter 400
  g_convergence GAU_LOOSE
  dynamic_level 1
}
memory 8.333333333333334GB
set_num_threads(1)
psi4_io.set_default_path("/scratch/bdw2292/Psi4-7_1_Index_0_GrowFragment_0-farH_in17")
for _ in range(1):
  try:
    set opt_coordinates both
    optimize('wb97x-d/6-311G')
    break
  except OptimizationConvergenceError:
    break
  else:
    try:
      set opt_coordinates cartesian
      optimize('wb97x-d/6-311G')
      break
    except OptimizationConvergenceError:
      pass
clean()
