molecule { 
0 1
 C   -0.807272    1.607545   -1.305878
 C   -0.643050    0.302655   -0.868922
 N    0.573329   -0.368707   -1.191388
 C    1.651924   -0.714071   -0.302704
 H    0.944680   -0.051431   -2.095714
 C   -1.507055    2.713621   -0.674088
 N   -0.683967    3.464568   -2.641828
 C   -0.279303    2.140437   -2.613238
 C   -1.400872    3.790690   -1.498966
 C   -1.566038   -0.494901   -0.019438
 C   -2.066176   -0.006792    1.214131
 C   -1.935321   -1.798706   -0.435797
 C   -2.929592   -0.789634    1.990765
 C   -2.798199   -2.578734    0.342750
 C   -3.304079   -2.078370    1.559492
 C    2.804210   -1.348898   -0.830844
 C    1.626218   -0.436001    1.087288
 C    3.881571   -1.691322   -0.003176
 C    2.707074   -0.781822    1.910205
 C    3.855299   -1.424486    1.386718
 H   -0.460697    4.074463   -3.414948
 O    0.381130    1.584135   -3.502426
 H   -1.770697    0.981944    1.567078
 H   -1.541574   -2.193342   -1.373418
 H   -3.309024   -0.395332    2.934685
 H   -3.077346   -3.576353    0.000727
 H   -3.979001   -2.686153    2.164761
 H    2.866112   -1.578478   -1.897336
 H    0.765220    0.056761    1.539345
 H    4.753291   -2.171210   -0.453330
 H    2.650783   -0.542982    2.974588
 N    4.956471   -1.771330    2.225474
 H   -2.024904    2.686237    0.272855
 H   -1.785735    4.794407   -1.379873
 H    5.487029   -2.575202    1.887782
 H    4.691324   -1.934553    3.197300
}
set optking { 
  frozen_dihedral = ("
    1 2 3 4
    10 2 3 4
    1 2 10 11
    1 2 10 12
    3 2 10 11
    16 4 3 2
    18 20 32 35
  ")
}
set {
  geom_maxiter 400
  g_convergence GAU_LOOSE
  dynamic_level 1
}
memory 8.333333333333334GB
set_num_threads(1)
psi4_io.set_default_path("/scratch/bdw2292/Psi4-7_1_Index_0_GrowFragment_0-farH_in17")
for _ in range(1):
  try:
    set opt_coordinates both
    optimize('wb97x-d/6-311G')
    break
  except OptimizationConvergenceError:
    break
  else:
    try:
      set opt_coordinates cartesian
      optimize('wb97x-d/6-311G')
      break
    except OptimizationConvergenceError:
      pass
clean()
