molecule { 
0 1
 C   -0.712602    1.600978    0.121385
 C   -0.797142    0.235584    0.344185
 N    0.181955   -0.389341    1.163276
 C    1.562234   -0.655979    0.854447
 H   -0.241090   -1.146667    1.700988
 C    0.211823    2.538401    0.742638
 N   -1.081576    3.714237   -0.680402
 C   -1.562064    2.420509   -0.818804
 C   -0.043503    3.773115    0.235641
 C   -1.895212   -0.653575   -0.124307
 C   -3.252973   -0.335894    0.130815
 C   -1.591180   -1.884009   -0.760473
 C   -4.274151   -1.211242   -0.260130
 C   -2.614544   -2.757212   -1.149371
 C   -3.962469   -2.425693   -0.904372
 C    2.366502   -1.332905    1.804988
 C    2.158656   -0.286036   -0.378032
 C    3.710881   -1.622458    1.534998
 C    3.504382   -0.576898   -0.640687
 C    4.313865   -1.242720    0.311497
 H   -1.473549    4.483611   -1.204074
 O   -2.494144    2.131545   -1.569736
 H   -3.507396    0.597603    0.634280
 H   -0.549021   -2.150682   -0.943685
 H   -5.313305   -0.947225   -0.058470
 H   -2.360723   -3.698759   -1.638763
 H   -4.759994   -3.105394   -1.209510
 H    1.945050   -1.638533    2.765644
 H    1.579606    0.228429   -1.146817
 H    4.292113   -2.153270    2.292287
 H    3.923977   -0.280911   -1.604657
 N    5.681941   -1.540214    0.038379
 H    0.969608    2.289607    1.471927
 H    0.431602    4.721078    0.447036
 H    6.263690   -1.594441    0.874988
 H    6.114519   -0.895988   -0.624478
}
set optking { 
  frozen_dihedral = ("
    1 2 3 4
    10 2 3 4
    1 2 10 11
    1 2 10 12
    3 2 10 11
    16 4 3 2
    18 20 32 35
  ")
}
set {
  geom_maxiter 400
  g_convergence GAU_LOOSE
  dynamic_level 1
}
memory 8.333333333333334GB
set_num_threads(1)
psi4_io.set_default_path("/scratch/bdw2292/Psi4-7_1_Index_0_GrowFragment_0-farH_in17")
for _ in range(1):
  try:
    set opt_coordinates both
    optimize('wb97x-d/6-311G')
    break
  except OptimizationConvergenceError:
    break
  else:
    try:
      set opt_coordinates cartesian
      optimize('wb97x-d/6-311G')
      break
    except OptimizationConvergenceError:
      pass
clean()
