molecule { 
0 1
 C   -0.713283    1.604285    0.124291
 C   -0.796787    0.238720    0.346251
 N    0.181740   -0.383988    1.167604
 C    1.560679   -0.654762    0.856023
 H   -0.241798   -1.140318    1.706243
 C    0.212733    2.541042    0.743892
 N   -1.085061    3.717783   -0.674003
 C   -1.565559    2.424272   -0.812737
 C   -0.044976    3.776307    0.239622
 C   -1.892302   -0.652066   -0.124975
 C   -3.251025   -0.336321    0.127234
 C   -1.585228   -1.881962   -0.760581
 C   -4.270166   -1.212995   -0.265954
 C   -2.606609   -2.756413   -1.151816
 C   -3.955523   -2.427009   -0.909502
 C    2.367100   -1.325134    1.809316
 C    2.153687   -0.295362   -0.381299
 C    3.710685   -1.617145    1.538282
 C    3.498496   -0.589446   -0.645554
 C    4.310294   -1.248167    0.309788
 H   -1.479225    4.487575   -1.195275
 O   -2.499619    2.136128   -1.561480
 H   -3.507949    0.596840    0.630051
 H   -0.542283   -2.147019   -0.941597
 H   -5.309986   -0.950448   -0.066162
 H   -2.350222   -3.697068   -1.641385
 H   -4.751369   -3.107981   -1.216133
 H    1.948315   -1.623058    2.773543
 H    1.572646    0.213361   -1.152448
 H    4.294053   -2.141133    2.298729
 H    3.915354   -0.301400   -1.613174
 N    5.677554   -1.548637    0.035637
 H    0.972351    2.291696    1.471059
 H    0.429612    4.724257    0.451522
 H    6.261002   -1.595583    0.871592
 H    6.108433   -0.910206   -0.633968
}
set optking { 
  frozen_dihedral = ("
    16 4 3 2
    1 2 10 11
    1 2 10 12
    3 2 10 11
    1 2 3 4
    10 2 3 4
    18 20 32 35
  ")
}
set {
  geom_maxiter 400
  g_convergence GAU_LOOSE
  dynamic_level 1
}
memory 8.333333333333334GB
set_num_threads(1)
psi4_io.set_default_path("/scratch/bdw2292/Psi4-7_1_Index_0_GrowFragment_0-farH_in17")
for _ in range(1):
  try:
    set opt_coordinates both
    optimize('wb97x-d/6-311G')
    break
  except OptimizationConvergenceError:
    break
  else:
    try:
      set opt_coordinates cartesian
      optimize('wb97x-d/6-311G')
      break
    except OptimizationConvergenceError:
      pass
clean()
