molecule { 
0 1
 C   -1.010004    2.090792    0.176065
 C   -0.600483    0.777518    0.004155
 N    0.673458    0.454915    0.564426
 C    1.774162   -0.476697    0.585069
 H    0.552490    0.689393    1.553919
 C   -0.372431    3.266207   -0.392291
 N   -2.127680    3.967724    0.842072
 C   -2.176955    2.589425    0.987301
 C   -1.070645    4.353893    0.029551
 C   -1.457427   -0.279960   -0.603120
 C   -2.775884   -0.479591   -0.115890
 C   -0.989067   -1.130142   -1.631846
 C   -3.585214   -1.499161   -0.631160
 C   -1.794071   -2.156837   -2.140287
 C   -3.097916   -2.349340   -1.643044
 C    2.822535   -0.210995    1.512506
 C    1.882057   -1.665624   -0.177245
 C    3.929150   -1.061488    1.631341
 C    2.998957   -2.507298   -0.065465
 C    4.053012   -2.220176    0.832198
 H   -2.800403    4.573375    1.290093
 O   -3.034976    2.004533    1.658447
 H   -3.163205    0.156610    0.682485
 H    0.001149   -0.957602   -2.055784
 H   -4.593919   -1.632180   -0.237985
 H   -1.406623   -2.801387   -2.930790
 H   -3.726241   -3.148151   -2.040502
 H    2.783831    0.677653    2.148360
 H    1.096874   -1.977187   -0.855418
 H    4.704204   -0.810919    2.358920
 H    3.038823   -3.407527   -0.683243
 N    5.183800   -3.081799    0.948283
 H    0.504241    3.268180   -1.023892
 H   -0.907605    5.403346   -0.173232
 H    6.032535   -2.602901    1.251212
 H    5.385228   -3.607950    0.097424
}
set optking { 
  frozen_dihedral = ("
    1 2 3 4
    10 2 3 4
    1 2 10 11
    1 2 10 12
    3 2 10 11
    16 4 3 2
    18 20 32 35
  ")
}
set {
  geom_maxiter 400
  g_convergence GAU_LOOSE
  dynamic_level 1
}
memory 8.333333333333334GB
set_num_threads(1)
psi4_io.set_default_path("/scratch/bdw2292/Psi4-7_1_Index_0_GrowFragment_0-farH_in17")
for _ in range(1):
  try:
    set opt_coordinates both
    optimize('wb97x-d/6-311G')
    break
  except OptimizationConvergenceError:
    break
  else:
    try:
      set opt_coordinates cartesian
      optimize('wb97x-d/6-311G')
      break
    except OptimizationConvergenceError:
      pass
clean()
