molecule { 
0 1
 C   -0.944553    1.987840    0.167507
 C   -0.662040    0.634826    0.182843
 N    0.475684    0.266365    0.952574
 C    1.660320   -0.538355    0.813542
 H    0.134762    0.149519    1.910337
 C   -0.157132    3.024364   -0.477613
 N   -1.918182    4.020637    0.526038
 C   -2.112579    2.678941    0.817959
 C   -0.774338    4.211964   -0.237629
 C   -1.515644   -0.427038   -0.440955
 C   -2.899814   -0.414601   -0.104766
 C   -1.057909   -1.476657   -1.276120
 C   -3.782832   -1.372998   -0.616033
 C   -1.941483   -2.437917   -1.785201
 C   -3.310512   -2.390553   -1.464322
 C    2.523819   -0.680077    1.933245
 C    2.120883   -1.047400   -0.424713
 C    3.708552   -1.423778    1.846380
 C    3.300899   -1.799277   -0.508293
 C    4.117969   -2.013191    0.627103
 H   -2.557017    4.733459    0.848031
 O   -3.069598    2.249944    1.473778
 H   -3.289120    0.350737    0.570665
 H   -0.011251   -1.556896   -1.542484
 H   -4.839393   -1.324767   -0.348414
 H   -1.558650   -3.226761   -2.434799
 H   -3.997530   -3.137482   -1.865409
 H    2.267463   -0.219507    2.890730
 H    1.584502   -0.829409   -1.345937
 H    4.317604   -1.542783    2.745279
 H    3.592708   -2.208628   -1.478116
 N    5.311371   -2.789423    0.545294
 H    0.755791    2.873418   -1.035490
 H   -0.497809    5.211555   -0.543881
 H    6.026701   -2.514384    1.218999
 H    5.724117   -2.813037   -0.387495
}
set optking { 
  frozen_dihedral = ("
    1 2 3 4
    10 2 3 4
    1 2 10 11
    1 2 10 12
    3 2 10 11
    16 4 3 2
    18 20 32 35
  ")
}
set {
  geom_maxiter 400
  g_convergence GAU_LOOSE
  dynamic_level 1
}
memory 8.333333333333334GB
set_num_threads(1)
psi4_io.set_default_path("/scratch/bdw2292/Psi4-7_1_Index_0_GrowFragment_0-farH_in17")
for _ in range(1):
  try:
    set opt_coordinates both
    optimize('wb97x-d/6-311G')
    break
  except OptimizationConvergenceError:
    break
  else:
    try:
      set opt_coordinates cartesian
      optimize('wb97x-d/6-311G')
      break
    except OptimizationConvergenceError:
      pass
clean()
