molecule { 
0 1
 C   -0.722057    1.587242    0.003530
 C   -0.760478    0.266645    0.399087
 N    0.265911   -0.261677    1.222805
 C    1.609549   -0.561181    0.818328
 H    0.207984    0.073626    2.184363
 C   -0.934777    2.756335    0.837894
 N   -0.546483    3.466940   -1.271304
 C   -0.468386    2.086574   -1.393646
 C   -0.819456    3.847834    0.035066
 C   -1.872672   -0.669698    0.106128
 C   -3.214082   -0.319446    0.401055
 C   -1.600314   -1.957993   -0.417361
 C   -4.253936   -1.225768    0.157622
 C   -2.642179   -2.862274   -0.657027
 C   -3.975473   -2.501726   -0.373526
 C    2.067928   -1.896699    0.891954
 C    2.506917    0.435218    0.366532
 C    3.375671   -2.226829    0.511387
 C    3.813092    0.099753   -0.015285
 C    4.279439   -1.236498    0.052820
 H   -0.415783    4.074590   -2.067386
 O   -0.243742    1.511241   -2.457532
 H   -3.436850    0.661983    0.822638
 H   -0.570076   -2.242035   -0.637256
 H   -5.281516   -0.937909    0.384841
 H   -2.415474   -3.848239   -1.065066
 H   -4.786813   -3.206770   -0.562733
 H    1.399151   -2.684198    1.246156
 H    2.192885    1.478462    0.307631
 H    3.690249   -3.270933    0.574497
 H    4.473463    0.894331   -0.369510
 N    5.607234   -1.575837   -0.342328
 H   -1.144709    2.755995    1.897933
 H   -0.909687    4.898077    0.277175
 H    5.980607   -2.394892    0.138072
 H    6.270631   -0.805605   -0.254916
}
set optking { 
  frozen_dihedral = ("
    16 4 3 2
    1 2 10 11
    1 2 10 12
    3 2 10 11
    1 2 3 4
    10 2 3 4
    18 20 32 35
  ")
}
set {
  geom_maxiter 400
  g_convergence GAU_LOOSE
  dynamic_level 1
}
memory 8.333333333333334GB
set_num_threads(1)
psi4_io.set_default_path("/scratch/bdw2292/Psi4-7_1_Index_0_GrowFragment_0-farH_in17")
for _ in range(1):
  try:
    set opt_coordinates both
    optimize('wb97x-d/6-311G')
    break
  except OptimizationConvergenceError:
    break
  else:
    try:
      set opt_coordinates cartesian
      optimize('wb97x-d/6-311G')
      break
    except OptimizationConvergenceError:
      pass
clean()
