molecule { 
0 1
 C    1.912488   -0.316775    1.060506
 N    0.907547   -0.024944    0.061605
 C   -0.285937   -0.835782    0.248950
 C   -1.671028   -0.278864    0.070221
 C    0.721552    1.400618   -0.109842
 H   -0.227861   -1.695683   -0.436453
 H   -0.307139   -1.262028    1.266180
 O   -2.037011    0.824953   -0.213934
 H    0.360721    1.902126    0.800006
 H    0.015233    1.585716   -0.912468
 H    2.064966   -1.394124    1.118303
 H    1.649014    0.059613    2.061758
 H    2.852331    0.139989    0.753211
 H   -2.413808   -1.090897    0.234572
 H    1.684055    1.832848   -0.383276
}
memory 20GB
set_num_threads(5)
psi4_io.set_default_path("/scratch/liuchw/Psi4-4_27_Index_0-farH_in17")
set freeze_core True
E, wfn = energy('wb97x-d/6-311+G*',return_wfn=True)
oeprop(wfn,"WIBERG_LOWDIN_INDICES")
clean()
