molecule { 
0 1
O 0.602566503934 -0.084445814794 0.032240520764
C -0.604076132635 0.084665605101 -0.032285186578
H -1.054893679580 1.091082138189 -0.080714984116
H -1.315642986030 -0.758964631981 -0.046551291147
}
memory 8.333333333333334GB
set_num_threads(1)
psi4_io.set_default_path("/scratch/bdw2292/Psi4-39_Index_0-farH_in17")
set freeze_core True
set PROPERTIES_ORIGIN ["COM"]
set cubeprop_tasks ['esp']
E, wfn = properties('mp2/6-311G**',properties=['dipole'],return_wfn=True)
cubeprop(wfn)
fchk(wfn, "39_Index_0-dma.fchk")
clean()
