%RWF=/scratch/bdw2292/Gau-TrimethylPhosphate/,100GB
%Nosave
%Chk=TrimethylPhosphate-opt.chk
%Mem=20GB
%Nproc=4
#P opt=(maxcycle=3,Loose) MP2/6-31G* Guess=INDO MaxDisk=100GB

TrimethylPhosphate Gaussian OPT Calculation on node37.bme.utexas.edu

0 1
 P    0.070000   -0.082000   -0.337000
 O    1.281000    0.715000    0.365000
 O   -0.560000   -0.940000    0.874000
 O   -1.035000    1.056000   -0.616000
 O    0.457000   -0.892000   -1.534000
 C    2.439000   -0.039000    0.661000
 C   -1.596000   -1.838000    0.530000
 C   -1.371000    1.940000    0.432000
 H    2.903000   -0.393000   -0.264000
 H    2.187000   -0.889000    1.300000
 H    3.149000    0.602000    1.189000
 H   -2.405000   -1.308000    0.020000
 H   -1.990000   -2.286000    1.446000
 H   -1.206000   -2.631000   -0.113000
 H   -1.662000    1.386000    1.329000
 H   -2.216000    2.555000    0.112000
 H   -0.527000    2.597000    0.657000

