%RWF=/scratch/bdw2292/Gau-aniline/,100GB
%Nosave
%Chk=aniline-dma_temp.chk
%Mem=700MB
%Nproc=1
#P MP2/6-311G** Sp Density=MP2 MaxDisk=100GB

aniline Gaussian SP Calculation on node37.bme.utexas.edu

0 1
 N   -2.336501   -0.000022    0.140809
 C   -0.941280    0.000062    0.033871
 C   -0.228413    1.204599    0.005451
 C   -0.228260   -1.204587    0.008230
 C    1.160459    1.199220   -0.045370
 C    1.160482   -1.199226   -0.042640
 C    1.867163    0.000044   -0.071873
 H   -0.768535    2.148215    0.031172
 H   -0.768387   -2.148194    0.036063
 H    1.694220    2.145034   -0.066901
 H    1.694446   -2.145007   -0.062063
 H    2.951843   -0.000075   -0.114719
 H   -2.780468   -0.833127   -0.220306
 H   -2.780781    0.832121   -0.222178

$nbo bndidx $end

