molecule { 
0 1
 H    1.209485    1.611228   -0.149719
 N    0.943710    0.646249   -0.407012
 C   -0.404103    0.529922   -0.291415
 C   -1.122085   -0.765276   -0.247180
 C    1.959691   -0.231836   -0.025401
 C   -1.154914    1.678125   -0.213982
 C   -2.574248    1.836500   -0.033204
 N   -1.621068    3.849885    0.166907
 C   -0.570010    3.007306   -0.056829
 C   -2.813942    3.144830    0.178337
 C   -1.337410   -1.394668    0.976177
 C   -1.709162   -1.283972   -1.394632
 C   -2.091184   -2.552143    1.039234
 C   -2.459187   -2.445432   -1.327230
 C   -2.649540   -3.082026   -0.112748
 C    1.808690   -1.605063    0.159324
 C    3.248652    0.309658    0.018507
 C    2.907108   -2.389292    0.464715
 C    4.337453   -0.480355    0.322110
 C    4.172037   -1.836851    0.555189
 H   -1.529603    4.840895    0.314266
 O    0.618892    3.330751   -0.065094
 H   -0.905268   -0.975573    1.873550
 H   -1.563842   -0.780819   -2.339021
 H   -2.247531   -3.038346    1.990807
 H   -2.903546   -2.848977   -2.225020
 H   -3.238230   -3.985833   -0.061434
 H    0.842194   -2.070011    0.066325
 H    3.377066    1.367268   -0.162428
 H    2.767720   -3.448865    0.621727
 H    5.322025   -0.039027    0.367050
 H   -3.297446    1.046991   -0.081798
 H   -3.741813    3.655173    0.350189
 H    5.022805   -2.457416    0.791791
}
memory 20GB
set_num_threads(5)
psi4_io.set_default_path("/scratch/liuchw/Psi4-1_7_Index_0-farH_in17")
set freeze_core True
E, wfn = energy('wb97x-d/6-311+G*',return_wfn=True)
oeprop(wfn,"WIBERG_LOWDIN_INDICES")
clean()
