molecule { 
0 1
 H    1.048685    1.200308    1.186917
 N    0.936383    0.735711    0.292498
 C   -0.411845    0.608940   -0.018039
 C   -1.143428   -0.680721    0.097101
 C    1.920612   -0.233921    0.122074
 C   -1.149653    1.744164   -0.167476
 C   -2.562713    1.867113   -0.430736
 N   -1.716606    3.931652   -0.260309
 C   -0.629204    3.120412   -0.037040
 C   -2.853223    3.179351   -0.493940
 C   -1.539843   -1.065278    1.373745
 C   -1.395137   -1.529861   -0.974055
 C   -2.197760   -2.266280    1.569112
 C   -2.054781   -2.729930   -0.775906
 C   -2.451349   -3.103772    0.496555
 C    1.837661   -1.284913   -0.787676
 C    3.134416   -0.025630    0.785859
 C    2.910576   -2.139156   -0.967528
 C    4.200930   -0.878993    0.597974
 C    4.092804   -1.950264   -0.274946
 H   -1.679693    4.936878   -0.241042
 O    0.485860    3.507969    0.257728
 H   -1.341852   -0.414059    2.213226
 H   -1.124077   -1.223930   -1.974806
 H   -2.508777   -2.549663    2.563763
 H   -2.254017   -3.377149   -1.617285
 H   -2.960771   -4.043131    0.651409
 H    0.941804   -1.437898   -1.361910
 H    3.225184    0.814176    1.460576
 H    2.820176   -2.956461   -1.668219
 H    5.125559   -0.703050    1.127843
 H   -3.236979    1.046428   -0.573535
 H   -3.792002    3.663446   -0.686362
 H    4.926453   -2.619488   -0.423511
}
memory 20GB
set_num_threads(5)
psi4_io.set_default_path("/scratch/liuchw/Psi4-1_7_Index_0-farH_in17")
set freeze_core True
E, wfn = energy('wb97x-d/6-311+G*',return_wfn=True)
oeprop(wfn,"WIBERG_LOWDIN_INDICES")
clean()
