molecule { 
0 1
 H    0.827954    0.552895    1.885898
 N    0.830179    0.549392    0.872421
 C   -0.482992    0.529113    0.348066
 C   -1.241306   -0.748420    0.434455
 C    1.839240   -0.238914    0.341878
 C   -1.051394    1.654920   -0.125461
 C   -2.393542    1.827564   -0.637583
 N   -1.361343    3.811850   -0.753503
 C   -0.400700    2.993514   -0.201374
 C   -2.528618    3.113885   -1.000663
 C   -1.795081   -1.078812    1.669916
 C   -1.348250   -1.654698   -0.612648
 C   -2.458778   -2.278469    1.846687
 C   -2.008347   -2.857788   -0.431375
 C   -2.561719   -3.175019    0.796480
 C    1.806732   -0.666567   -0.984691
 C    3.012494   -0.428609    1.074370
 C    2.878321   -1.349262   -1.526265
 C    4.079958   -1.108749    0.525210
 C    4.015218   -1.587262   -0.773494
 H   -1.222637    4.791980   -0.934242
 O    0.704201    3.350238    0.136080
 H   -1.715466   -0.379922    2.491159
 H   -0.941022   -1.413271   -1.581786
 H   -2.891286   -2.515599    2.807577
 H   -2.085898   -3.551881   -1.255135
 H   -3.072982   -4.115947    0.934946
 H    0.949304   -0.431789   -1.595295
 H    3.069823   -0.053168    2.086618
 H    2.829584   -1.685445   -2.552111
 H    4.974949   -1.257521    1.111882
 H   -3.126035    1.049126   -0.711105
 H   -3.378002    3.616508   -1.424518
 H    4.850833   -2.120871   -1.200333
}
memory 20GB
set_num_threads(5)
psi4_io.set_default_path("/scratch/liuchw/Psi4-1_7_Index_0-farH_in17")
set freeze_core True
E, wfn = energy('wb97x-d/6-311+G*',return_wfn=True)
oeprop(wfn,"WIBERG_LOWDIN_INDICES")
clean()
