molecule { 
0 1
 H    0.778602   -1.123225   -1.286270
 N    0.778018   -0.848228   -0.308216
 C   -0.461357   -0.336953    0.010104
 C   -1.555132   -1.199888   -0.518844
 C    2.029916   -0.354754    0.071081
 C   -0.811321    0.871706    0.542557
 C   -2.167244    1.241128    0.887652
 N   -0.909625    3.071846    1.065119
 C   -0.022172    2.114885    0.628481
 C   -2.176742    2.545377    1.214527
 C   -1.925877   -2.366846    0.138007
 C   -2.172993   -0.863273   -1.717552
 C   -2.921731   -3.173103   -0.384663
 C   -3.163242   -1.674966   -2.240999
 C   -3.540812   -2.828906   -1.574487
 C    2.232817    0.273690    1.300526
 C    3.144590   -0.830008   -0.620061
 C    3.513221    0.574041    1.723657
 C    4.421647   -0.517282   -0.199148
 C    4.611761    0.204731    0.967197
 H   -0.656481    4.035700    1.202196
 O    1.123767    2.355152    0.288574
 H   -1.437558   -2.631763    1.064189
 H   -1.880516    0.042577   -2.229272
 H   -3.213036   -4.073331    0.136109
 H   -3.640795   -1.406720   -3.171851
 H   -4.316292   -3.459510   -1.983350
 H    1.392669    0.495645    1.937302
 H    3.001333   -1.400751   -1.528693
 H    3.652670    1.088075    2.663079
 H    5.271515   -0.859861   -0.771311
 H   -2.996069    0.562033    0.918044
 H   -2.989786    3.166370    1.539672
 H    5.609650    0.449409    1.298705
}
memory 20GB
set_num_threads(5)
psi4_io.set_default_path("/scratch/liuchw/Psi4-1_7_Index_0-farH_in17")
set freeze_core True
E, wfn = energy('wb97x-d/6-311+G*',return_wfn=True)
oeprop(wfn,"WIBERG_LOWDIN_INDICES")
clean()
