molecule { 
0 1
 H    1.169646    1.567638    0.395168
 N    0.955012    0.761084   -0.200812
 C   -0.399222    0.613905   -0.289889
 C   -1.102997   -0.683447   -0.151185
 C    1.927064   -0.226295   -0.029750
 C   -1.169247    1.750672   -0.268436
 C   -2.602738    1.882238   -0.290051
 N   -1.730486    3.900670    0.116060
 C   -0.636794    3.083496    0.022967
 C   -2.896042    3.179931   -0.081088
 C   -1.379678   -1.146086    1.129706
 C   -1.508144   -1.429865   -1.253333
 C   -2.055234   -2.341032    1.303128
 C   -2.186491   -2.622097   -1.074287
 C   -2.458205   -3.080653    0.204272
 C    1.768824   -1.576351   -0.336571
 C    3.195834    0.226466    0.349254
 C    2.833998   -2.449302   -0.200374
 C    4.251606   -0.650537    0.480365
 C    4.074922   -1.999157    0.212182
 H   -1.682550    4.886944    0.308916
 O    0.523273    3.418532    0.246312
 H   -1.066099   -0.567208    1.986209
 H   -1.291909   -1.066728   -2.247552
 H   -2.267162   -2.695239    2.301004
 H   -2.499405   -3.196419   -1.933809
 H   -2.984268   -4.013303    0.343735
 H    0.822708   -1.956408   -0.680411
 H    3.333732    1.278834    0.552996
 H    2.687057   -3.494614   -0.429465
 H    5.219589   -0.280867    0.784705
 H   -3.293787    1.084428   -0.476581
 H   -3.848962    3.671874   -0.044671
 H    4.899550   -2.688104    0.313342
}
memory 20GB
set_num_threads(5)
psi4_io.set_default_path("/scratch/liuchw/Psi4-1_7_Index_0-farH_in17")
set freeze_core True
E, wfn = energy('wb97x-d/6-311+G*',return_wfn=True)
oeprop(wfn,"WIBERG_LOWDIN_INDICES")
clean()
