molecule { 
0 1
 C   -0.503787   -0.135011    0.324933
 N    0.626607   -0.889750    0.216991
 C    1.907291   -0.639498   -0.336000
 C    2.966648   -1.317380    0.290761
 H    0.605818   -1.694220    0.851792
 C    2.197083    0.227485   -1.394436
 C   -1.488635   -0.559375    1.195040
 N   -2.494119   -1.793990    2.800845
 C   -2.831634   -0.044200    1.424434
 C   -1.317348   -1.698187    2.092652
 C   -3.401670   -0.800913    2.388587
 C   -0.799985    0.989197   -0.602220
 C   -1.151941    2.244439   -0.100741
 C   -0.921802    0.742778   -1.975473
 C   -1.557307    3.259225   -0.965410
 C   -1.337325    1.752945   -2.835990
 C   -1.647749    3.016742   -2.333491
 C    4.272823   -1.161740   -0.151170
 C    3.514897    0.385205   -1.822242
 C    4.557508   -0.306367   -1.214977
 H    2.751103   -1.964408    1.131547
 H    1.422545    0.786075   -1.887477
 H   -2.660239   -2.503197    3.487951
 O   -0.322429   -2.472247    2.211480
 H   -1.092413    2.424990    0.963814
 H   -0.700909   -0.244342   -2.359391
 H   -1.808189    4.233449   -0.568958
 H   -1.429849    1.552180   -3.894502
 H   -1.968703    3.802190   -3.003908
 H    5.069234   -1.699514    0.344862
 H    3.718543    1.058868   -2.643731
 H   -3.291294    0.779847    0.908884
 H   -4.380792   -0.737874    2.827685
 H    5.574283   -0.178123   -1.558770
}
memory 8.166666666666666GB
set_num_threads(2)
psi4_io.set_default_path("/scratch/bdw2292/Psi4-1_16_Index_0-farH_in17")
set freeze_core True
E, wfn = energy('wb97x-d/6-311+G*',return_wfn=True)
oeprop(wfn,"WIBERG_LOWDIN_INDICES")
clean()
