molecule { 
0 1
 C   -0.559720   -0.135101    0.337667
 N    0.599276   -0.908687    0.335652
 C    1.880399   -0.686985   -0.231720
 C    2.652295   -1.803182   -0.642585
 H    0.625306   -1.565094    1.138446
 C    2.447139    0.611104   -0.316556
 C   -1.555640   -0.499812    1.257669
 N   -2.474324   -1.295951    3.182445
 C   -2.997179   -0.424566    1.170348
 C   -1.261252   -1.139507    2.558386
 C   -3.511090   -0.880575    2.345032
 C   -0.791738    0.932078   -0.697680
 C   -1.723201    1.982113   -0.455732
 C   -0.228366    0.840089   -2.004703
 C   -2.021737    2.927578   -1.445496
 C   -0.526240    1.792991   -2.988062
 C   -1.420226    2.844814   -2.714975
 C    3.936271   -1.617532   -1.172806
 C    3.732567    0.785607   -0.847653
 C    4.484978   -0.323837   -1.284337
 H    2.243397   -2.812120   -0.554181
 H    1.886860    1.481333    0.030258
 H   -2.555686   -1.689166    4.108691
 O   -0.151076   -1.511403    3.008092
 H   -2.202187    2.069519    0.520715
 H    0.436080    0.015138   -2.263127
 H   -2.724582    3.733843   -1.228024
 H   -0.065015    1.713483   -3.974172
 H   -1.650178    3.585618   -3.482946
 H    4.509918   -2.486290   -1.500890
 H    4.148703    1.791912   -0.920352
 H   -3.575346   -0.059850    0.332340
 H   -4.539172   -0.959531    2.669790
 H    5.483925   -0.182687   -1.700644
}
set optking { 
  frozen_dihedral = ("
    2 1 12 13
    7 1 2 3
    1 2 3 4
  ")
}
set {
  geom_maxiter 400
  g_convergence GAU_LOOSE
  dynamic_level 1
}
memory 8.166666666666666GB
set_num_threads(2)
psi4_io.set_default_path("/scratch/bdw2292/Psi4-1_16_Index_0-farH_in17")
for _ in range(1):
  try:
    set opt_coordinates both
    optimize('wb97x-d/6-311G')
    break
  except OptimizationConvergenceError:
    break
  else:
    try:
      set opt_coordinates cartesian
      optimize('wb97x-d/6-311G')
      break
    except OptimizationConvergenceError:
      pass
clean()
