molecule { 
0 1
 C   -0.571224   -0.220430    0.372301
 N    0.609735   -0.899146    0.426446
 C    1.850548   -0.568155   -0.169157
 C    2.701868   -1.620462   -0.521698
 H    0.617599   -1.653470    1.118257
 C    2.271025    0.751276   -0.360961
 C   -1.570770   -0.548213    1.261895
 N   -2.598133   -1.620381    2.967196
 C   -2.942893   -0.070383    1.369527
 C   -1.395029   -1.563040    2.297651
 C   -3.523481   -0.725773    2.399757
 C   -0.785574    0.797297   -0.687962
 C   -1.253631    2.074110   -0.364148
 C   -0.536523    0.475494   -2.026780
 C   -1.464517    3.018421   -1.365945
 C   -0.755781    1.417467   -3.025594
 C   -1.217074    2.691847   -2.697584
 C    3.951639   -1.356776   -1.071813
 C    3.514998    1.005899   -0.930482
 C    4.360744   -0.042137   -1.288612
 H    2.373450   -2.639429   -0.365063
 H    1.637177    1.571819   -0.061073
 H   -2.767475   -2.245518    3.731006
 O   -0.381146   -2.277114    2.543267
 H   -1.437045    2.325753    0.671678
 H   -0.170071   -0.510198   -2.278794
 H   -1.819486    4.006392   -1.106089
 H   -0.565531    1.158581   -4.058043
 H   -1.382352    3.424838   -3.475399
 H    4.601919   -2.179419   -1.336349
 H    3.828124    2.030336   -1.079519
 H   -3.413408    0.660639    0.736503
 H   -4.521802   -0.649883    2.791289
 H    5.329007    0.162842   -1.723554
}
memory 8.166666666666666GB
set_num_threads(2)
psi4_io.set_default_path("/scratch/bdw2292/Psi4-1_16_Index_0-farH_in17")
set freeze_core True
E, wfn = energy('wb97x-d/6-311+G*',return_wfn=True)
oeprop(wfn,"WIBERG_LOWDIN_INDICES")
clean()
