molecule { 
0 1
 C   -0.501261   -0.083674    0.347152
 N    0.741724   -0.613085    0.534664
 C    2.005180   -0.344196   -0.047248
 C    2.238372    0.103911   -1.351303
 H    0.799912   -1.136971    1.414541
 C    3.107884   -0.617439    0.779495
 C   -1.470217   -0.351623    1.294126
 N   -2.385260   -1.118630    3.214519
 C   -2.892370   -0.037881    1.305506
 C   -1.187874   -1.064391    2.537459
 C   -3.406042   -0.505594    2.465096
 C   -0.899241    0.583699   -0.920843
 C   -1.490007    1.849322   -0.897943
 C   -0.870011   -0.134737   -2.122683
 C   -1.986039    2.416186   -2.070117
 C   -1.374530    0.427880   -3.289861
 C   -1.926022    1.708976   -3.267896
 C    3.545903    0.287593   -1.799507
 C    4.405118   -0.442067    0.318987
 C    4.634636    0.015330   -0.978001
 H    1.426495    0.325843   -2.019876
 H    2.932824   -0.959501    1.791705
 H   -2.488501   -1.567148    4.103914
 O   -0.093971   -1.561477    2.936700
 H   -1.547403    2.389863    0.036994
 H   -0.462212   -1.136840   -2.132253
 H   -2.424572    3.404288   -2.044355
 H   -1.348307   -0.135743   -4.212450
 H   -2.316084    2.146358   -4.176760
 H    3.705075    0.640847   -2.809512
 H    5.236042   -0.657370    0.976957
 H   -3.437768    0.463372    0.526052
 H   -4.413427   -0.470457    2.838545
 H    5.643582    0.155864   -1.339755
}
memory 8.166666666666666GB
set_num_threads(2)
psi4_io.set_default_path("/scratch/bdw2292/Psi4-1_16_Index_0-farH_in17")
set freeze_core True
E, wfn = energy('wb97x-d/6-311+G*',return_wfn=True)
oeprop(wfn,"WIBERG_LOWDIN_INDICES")
clean()
