molecule { 
0 1
 C   -0.566421   -0.090268    0.408827
 N    0.647149   -0.683485    0.622893
 C    1.889454   -0.427091   -0.009157
 C    2.797607   -1.482557   -0.123081
 H    0.699290   -1.196835    1.508009
 C    2.258254    0.850710   -0.440797
 C   -1.545168   -0.295450    1.369712
 N   -2.440615   -0.964881    3.343442
 C   -2.982181   -0.044152    1.363687
 C   -1.248940   -0.930122    2.654872
 C   -3.479302   -0.447591    2.554317
 C   -0.906415    0.471611   -0.926181
 C   -0.225968    0.071525   -2.085698
 C   -1.799206    1.549590   -1.021725
 C   -0.505250    0.661368   -3.312762
 C   -2.075446    2.142550   -2.249905
 C   -1.434542    1.695750   -3.402081
 C    4.049476   -1.268598   -0.692867
 C    3.504198    1.053100   -1.024304
 C    4.404589   -0.003438   -1.155546
 H    2.509963   -2.465350    0.225289
 H    1.572797    1.676580   -0.316652
 H   -2.527319   -1.360911    4.258875
 O   -0.152674   -1.397908    3.079204
 H    0.488968   -0.735294   -2.040074
 H   -2.251867    1.948049   -0.126566
 H    0.011259    0.317694   -4.198029
 H   -2.774737    2.965621   -2.301456
 H   -1.645301    2.157654   -4.356772
 H    4.744368   -2.092653   -0.778499
 H    3.778148    2.043264   -1.361842
 H   -3.566094    0.346135    0.551738
 H   -4.490121   -0.432006    2.918630
 H    5.374764    0.160364   -1.603224
}
memory 8.166666666666666GB
set_num_threads(2)
psi4_io.set_default_path("/scratch/bdw2292/Psi4-1_16_Index_0-farH_in17")
set freeze_core True
E, wfn = energy('wb97x-d/6-311+G*',return_wfn=True)
oeprop(wfn,"WIBERG_LOWDIN_INDICES")
clean()
