molecule { 
0 1
 C   -0.571224   -0.220430    0.372300
 N    0.609733   -0.899150    0.426440
 C    1.850546   -0.568160   -0.169164
 C    2.701862   -1.620467   -0.521712
 H    0.617596   -1.653477    1.118248
 C    2.271026    0.751271   -0.360962
 C   -1.570769   -0.548214    1.261896
 N   -2.598131   -1.620385    2.967197
 C   -2.942890   -0.070380    1.369534
 C   -1.395028   -1.563045    2.297648
 C   -3.523477   -0.725772    2.399762
 C   -0.785573    0.797302   -0.687958
 C   -1.253627    2.074115   -0.364138
 C   -0.536526    0.475503   -2.026777
 C   -1.464512    3.018429   -1.365930
 C   -0.755783    1.417481   -3.025587
 C   -1.217073    2.691860   -2.697572
 C    3.951632   -1.356782   -1.071827
 C    3.514999    1.005894   -0.930483
 C    4.360741   -0.042143   -1.288620
 H    2.373441   -2.639434   -0.365082
 H    1.637181    1.571814   -0.061068
 H   -2.767472   -2.245524    3.731004
 O   -0.381146   -2.277122    2.543259
 H   -1.437037    2.325753    0.671689
 H   -0.170078   -0.510189   -2.278796
 H   -1.819477    4.006400   -1.106070
 H   -0.565536    1.158598   -4.058038
 H   -1.382350    3.424855   -3.475383
 H    4.601910   -2.179426   -1.336368
 H    3.828128    2.030330   -1.079515
 H   -3.413404    0.660645    0.736513
 H   -4.521797   -0.649881    2.791297
 H    5.329004    0.162836   -1.723562
}
memory 8.166666666666666GB
set_num_threads(2)
psi4_io.set_default_path("/scratch/bdw2292/Psi4-1_16_Index_0-farH_in17")
set freeze_core True
E, wfn = energy('wb97x-d/6-311+G*',return_wfn=True)
oeprop(wfn,"WIBERG_LOWDIN_INDICES")
clean()
