molecule { 
0 1
 C   -0.100807   -0.371223    0.579031
 N    0.706819   -1.268764   -0.086884
 C    1.290197   -1.282693   -1.378597
 C    1.502384   -2.548193   -1.948320
 H    0.938234   -2.086594    0.452076
 C    1.702007   -0.150181   -2.084568
 C   -0.258466   -0.499694    1.933087
 N   -0.938210   -0.152446    4.075388
 C    0.352466   -1.493721    2.819045
 C   -1.101565    0.364704    2.791106
 C   -0.073327   -1.249182    4.075867
 C   -0.692536    0.793107   -0.144936
 C   -2.058473    0.804950   -0.427501
 C    0.040301    1.973526   -0.298650
 C   -2.657988    1.939707   -0.964051
 C   -0.557985    3.111294   -0.827785
 C   -1.907125    3.091966   -1.175090
 C    2.111058   -2.677951   -3.189534
 C    2.292032   -0.288490   -3.339442
 C    2.504776   -1.544280   -3.899006
 H    1.170681   -3.431222   -1.415943
 H    1.571049    0.833131   -1.673540
 H   -1.396459    0.245386    4.871755
 O   -1.820890    1.345968    2.527467
 H   -2.650857   -0.076210   -0.223582
 H    1.069627    2.011471    0.033711
 H   -3.715156    1.931400   -1.190330
 H    0.020963    4.017316   -0.944492
 H   -2.375323    3.978708   -1.580223
 H    2.265139   -3.663639   -3.606970
 H    2.596991    0.601415   -3.872959
 H    1.054173   -2.266251    2.553207
 H    0.173738   -1.755793    4.992028
 H    2.970055   -1.640020   -4.869850
}
memory 8.166666666666666GB
set_num_threads(2)
psi4_io.set_default_path("/scratch/bdw2292/Psi4-1_16_Index_0-farH_in17")
set freeze_core True
E, wfn = energy('wb97x-d/6-311+G*',return_wfn=True)
oeprop(wfn,"WIBERG_LOWDIN_INDICES")
clean()
