molecule { 
0 1
 C   -0.610981   -0.276562    0.305075
 N    0.604182   -0.879561    0.422556
 C    1.861058   -0.539932   -0.134087
 C    2.744873   -1.598181   -0.381412
 H    0.608317   -1.633073    1.117132
 C    2.270942    0.768571   -0.401965
 C   -1.616953   -0.617262    1.178295
 N   -2.671019   -1.688128    2.864353
 C   -2.987023   -0.134150    1.263378
 C   -1.456533   -1.630977    2.215574
 C   -3.584890   -0.786411    2.285641
 C   -0.831067    0.797487   -0.703227
 C   -0.831115    2.140837   -0.317004
 C   -0.955010    0.468661   -2.054122
 C   -0.980062    3.142714   -1.271558
 C   -1.103423    1.472455   -3.007786
 C   -1.115168    2.809872   -2.618572
 C    4.014265   -1.352971   -0.889877
 C    3.538928    1.003663   -0.928691
 C    4.416294   -0.048862   -1.174632
 H    2.422290   -2.610238   -0.175354
 H    1.618170    1.600246   -0.195937
 H   -2.852337   -2.306384    3.631054
 O   -0.437827   -2.329648    2.485014
 H   -0.724824    2.391871    0.730276
 H   -0.929390   -0.570302   -2.353389
 H   -0.986084    4.179997   -0.965588
 H   -1.203440    1.210362   -4.051997
 H   -1.227044    3.588962   -3.360136
 H    4.685321   -2.181383   -1.071409
 H    3.843030    2.021016   -1.134308
 H   -3.434285    0.612827    0.631451
 H   -4.585589   -0.701514    2.669114
 H    5.400671    0.143304   -1.577896
}
memory 8.166666666666666GB
set_num_threads(2)
psi4_io.set_default_path("/scratch/bdw2292/Psi4-1_16_Index_0-farH_in17")
set freeze_core True
E, wfn = energy('wb97x-d/6-311+G*',return_wfn=True)
oeprop(wfn,"WIBERG_LOWDIN_INDICES")
clean()
