molecule { 
0 1
 C   -0.601660   -0.346931    0.282933
 N   -0.068361   -1.409485   -0.413011
 C    1.163660   -1.528883   -1.099732
 C    1.206899   -2.398992   -2.196694
 H   -0.643667   -2.234228   -0.445576
 C    2.334923   -0.882137   -0.695568
 C   -1.665361   -0.545265    1.115746
 N   -3.465825   -0.147043    2.443241
 C   -2.296417   -1.811999    1.488479
 C   -2.453935    0.527788    1.761314
 C   -3.354720   -1.530310    2.277385
 C   -0.001506    1.001500    0.083256
 C   -0.331584    1.734420   -1.056233
 C    0.789603    1.583673    1.073848
 C    0.165594    3.023044   -1.226357
 C    1.292561    2.867661    0.900174
 C    0.983638    3.588630   -0.252149
 C    2.395699   -2.608841   -2.885327
 C    3.516741   -1.083689   -1.403603
 C    3.557979   -1.945260   -2.496911
 H    0.299498   -2.895486   -2.517413
 H    2.331934   -0.232632    0.163276
 H   -4.162740    0.334438    2.976882
 O   -2.332418    1.765916    1.742580
 H   -0.978879    1.295741   -1.803474
 H    0.993425    1.033649    1.983166
 H   -0.095633    3.587139   -2.111123
 H    1.908114    3.312962    1.669695
 H    1.366401    4.591802   -0.381823
 H    2.409819   -3.283078   -3.730717
 H    4.413996   -0.571775   -1.083797
 H   -1.959801   -2.803618    1.238669
 H   -4.043156   -2.199242    2.762753
 H    4.482140   -2.101130   -3.035343
}
memory 8.166666666666666GB
set_num_threads(2)
psi4_io.set_default_path("/scratch/bdw2292/Psi4-1_16_Index_0-farH_in17")
set freeze_core True
E, wfn = energy('wb97x-d/6-311+G*',return_wfn=True)
oeprop(wfn,"WIBERG_LOWDIN_INDICES")
clean()
