molecule { 
0 1
 C   -0.536840   -0.289000    0.382103
 N    0.681078   -0.866807    0.577080
 C    1.906603   -0.531614   -0.082991
 C    2.296431   -1.181412   -1.252671
 H    0.736496   -1.440090    1.424649
 C    2.709739    0.476214    0.451170
 C   -1.536913   -0.521697    1.306354
 N   -2.514291   -1.298198    3.190410
 C   -2.939367   -0.126474    1.315947
 C   -1.308804   -1.292985    2.521899
 C   -3.491249   -0.603951    2.454636
 C   -0.774727    0.585278   -0.796541
 C   -1.351065    1.846558   -0.601421
 C   -0.526559    0.150984   -2.102997
 C   -1.629177    2.673241   -1.685402
 C   -0.811797    0.975634   -3.186863
 C   -1.356576    2.241148   -2.981442
 C    3.484776   -0.825431   -1.885134
 C    3.898638    0.830322   -0.181148
 C    4.285605    0.183114   -1.352928
 H    1.682107   -1.980064   -1.643285
 H    2.391336    0.974455    1.356314
 H   -2.649207   -1.764187    4.066541
 O   -0.246914   -1.858794    2.917286
 H   -1.558655    2.181030    0.405464
 H   -0.132788   -0.838274   -2.274665
 H   -2.058577    3.651334   -1.517304
 H   -0.614723    0.626514   -4.191167
 H   -1.573232    2.882230   -3.824983
 H    3.784800   -1.335404   -2.790266
 H    4.517019    1.612707    0.236821
 H   -3.449973    0.426008    0.547278
 H   -4.499671   -0.526768    2.819077
 H    5.206502    0.460751   -1.846895
}
memory 8.166666666666666GB
set_num_threads(2)
psi4_io.set_default_path("/scratch/bdw2292/Psi4-1_16_Index_0-farH_in17")
set freeze_core True
E, wfn = energy('wb97x-d/6-311+G*',return_wfn=True)
oeprop(wfn,"WIBERG_LOWDIN_INDICES")
clean()
