molecule { 
0 1
 C   -0.553161   -0.053220    0.420668
 N    0.525556   -0.853129    0.146636
 C    1.832774   -0.547240   -0.302278
 C    2.495516   -1.499501   -1.080258
 H    0.440698   -1.802098    0.542315
 C    2.522137    0.594623    0.123792
 C   -1.563818   -0.689473    1.162295
 N   -2.481465   -2.369778    2.411656
 C   -2.925717   -0.338874    1.570784
 C   -1.343067   -2.033908    1.721973
 C   -3.430292   -1.350581    2.311997
 C   -0.763294    1.215923   -0.364200
 C   -1.953898    1.956205   -0.265796
 C    0.052138    1.518095   -1.474538
 C   -2.262269    2.991120   -1.141393
 C   -0.251378    2.551016   -2.354209
 C   -1.409713    3.302468   -2.193637
 C    3.813327   -1.284642   -1.475871
 C    3.831263    0.810986   -0.288874
 C    4.482911   -0.124911   -1.093271
 H    1.967933   -2.395002   -1.378996
 H    2.025853    1.305750    0.769409
 H   -2.588946   -3.250502    2.875352
 O   -0.345460   -2.809137    1.601047
 H   -2.623051    1.792689    0.553999
 H    0.925709    0.934934   -1.694243
 H   -3.179014    3.546352   -0.998760
 H    0.415146    2.746688   -3.182692
 H   -1.649153    4.102145   -2.880648
 H    4.313957   -2.026136   -2.083280
 H    4.350365    1.702678    0.035110
 H   -3.492336    0.540830    1.347259
 H   -4.394433   -1.440843    2.778340
 H    5.504332    0.042604   -1.405006
}
memory 8.166666666666666GB
set_num_threads(2)
psi4_io.set_default_path("/scratch/bdw2292/Psi4-1_16_Index_0-farH_in17")
set freeze_core True
E, wfn = energy('wb97x-d/6-311+G*',return_wfn=True)
oeprop(wfn,"WIBERG_LOWDIN_INDICES")
clean()
