molecule { 
0 1
 C   -0.544754   -0.098290    0.459346
 N    0.753902   -0.480125    0.775681
 C    1.995841   -0.213862    0.143017
 C    2.233536    0.971611   -0.599461
 H    0.837087   -0.824360    1.752246
 C    3.019807   -1.192738    0.219849
 C   -1.548915   -0.245272    1.427157
 N   -2.507856   -0.660071    3.449904
 C   -2.983800   -0.104277    1.317520
 C   -1.283825   -0.640367    2.828306
 C   -3.522196   -0.345777    2.543760
 C   -0.846809    0.451985   -0.892182
 C   -1.574556    1.661516   -1.034809
 C   -0.473321   -0.263949   -2.059719
 C   -1.896431    2.150292   -2.307467
 C   -0.797133    0.230750   -3.329717
 C   -1.508932    1.440298   -3.461965
 C    3.462433    1.166190   -1.245180
 C    4.245007   -0.987637   -0.428887
 C    4.476785    0.190777   -1.166483
 H    1.468174    1.745610   -0.669775
 H    2.854716   -2.112211    0.786223
 H   -2.611853   -0.888865    4.427674
 O   -0.182046   -0.918397    3.366322
 H   -1.877935    2.215044   -0.144081
 H    0.068507   -1.206921   -1.964068
 H   -2.449678    3.086205   -2.402855
 H   -0.498378   -0.325197   -4.220151
 H   -1.761032    1.823479   -4.452402
 H    3.629355    2.083638   -1.812246
 H    5.021066   -1.751785   -0.358767
 H   -3.541741    0.149266    0.426705
 H   -4.553786   -0.328412    2.866327
 H    5.431920    0.347197   -1.670935
}
set optking { 
  frozen_dihedral = ("
    1 2 3 4
    2 1 12 13
    7 1 2 3
  ")
}
set {
  geom_maxiter 400
  g_convergence GAU_LOOSE
  dynamic_level 1
}
memory 8.166666666666666GB
set_num_threads(2)
psi4_io.set_default_path("/scratch/bdw2292/Psi4-1_16_Index_0-farH_in17")
for _ in range(1):
  try:
    set opt_coordinates both
    optimize('wb97x-d/6-311G')
    break
  except OptimizationConvergenceError:
    break
  else:
    try:
      set opt_coordinates cartesian
      optimize('wb97x-d/6-311G')
      break
    except OptimizationConvergenceError:
      pass
clean()
