molecule { 
0 1
 C   -0.526455   -0.139379    0.209522
 N    0.739622   -0.659670    0.449192
 C    2.057434   -0.278000    0.090954
 C    3.047906   -1.279737   -0.077747
 H    0.716997   -1.397377    1.171359
 C    2.463968    1.082112    0.135127
 C   -1.513277   -0.660857    1.042121
 N   -2.955726   -2.177945    1.897868
 C   -2.247759   -0.047606    2.121003
 C   -1.986465   -2.053059    0.929869
 C   -3.108767   -0.982801    2.606556
 C   -0.918500    0.717597   -0.975990
 C    0.012418    1.277805   -1.899557
 C   -2.298693    1.026710   -1.184702
 C   -0.408389    2.109522   -2.947098
 C   -2.712551    1.854505   -2.236766
 C   -1.770989    2.405704   -3.122538
 C    4.385406   -0.923567   -0.299476
 C    3.803383    1.428563   -0.089343
 C    4.772976    0.431478   -0.316808
 H    2.766398   -2.335129   -0.052769
 H    1.733805    1.866873    0.344963
 H   -3.456399   -3.043054    2.040233
 O   -1.596188   -2.962900    0.169523
 H    1.072195    1.056056   -1.833775
 H   -3.062695    0.623696   -0.518582
 H    0.331117    2.527080   -3.633178
 H   -3.773994    2.074117   -2.365416
 H   -2.094595    3.053248   -3.939297
 H    5.127540   -1.707737   -0.458222
 H    4.090520    2.481371   -0.082459
 H   -2.143431    0.966884    2.479024
 H   -3.827916   -0.914367    3.410941
 H    5.814263    0.705204   -0.495648
}
set optking { 
  frozen_dihedral = ("
    2 1 12 13
    7 1 2 3
    1 2 3 4
  ")
}
set {
  geom_maxiter 400
  g_convergence GAU_LOOSE
  dynamic_level 1
}
memory 8.166666666666666GB
set_num_threads(2)
psi4_io.set_default_path("/scratch/bdw2292/Psi4-1_16_Index_0-farH_in17")
for _ in range(1):
  try:
    set opt_coordinates both
    optimize('wb97x-d/6-311G')
    break
  except OptimizationConvergenceError:
    break
  else:
    try:
      set opt_coordinates cartesian
      optimize('wb97x-d/6-311G')
      break
    except OptimizationConvergenceError:
      pass
clean()
