molecule { 
0 1
 C   -0.617258   -0.243913    0.205351
 N    0.526152   -1.020703    0.209542
 C    1.759167   -0.981749   -0.496156
 C    2.416150   -2.224369   -0.717533
 H    0.512218   -1.701569    0.983723
 C    2.389398    0.202805   -0.951433
 C   -1.491283   -0.424304    1.266477
 N   -2.387171   -0.100908    3.313978
 C   -2.602741   -1.326654    1.429967
 C   -1.374033    0.362951    2.506597
 C   -3.119511   -1.103211    2.668815
 C   -0.801912    0.948647   -0.655282
 C   -1.690757    0.895085   -1.755620
 C   -0.232003    2.194595   -0.291431
 C   -1.929193    2.040029   -2.528114
 C   -0.471384    3.336840   -1.066433
 C   -1.313302    3.264612   -2.195335
 C    3.645561   -2.273339   -1.388386
 C    3.618902    0.143263   -1.623988
 C    4.256449   -1.092015   -1.849918
 H    1.961307   -3.155197   -0.369450
 H    1.940271    1.177417   -0.787640
 H   -2.539417    0.267310    4.241617
 O   -0.547536    1.251140    2.811287
 H   -2.181730   -0.048117   -2.002555
 H    0.385519    2.255575    0.607699
 H   -2.594342    1.980838   -3.391336
 H   -0.004461    4.284348   -0.792161
 H   -1.494129    4.153448   -2.802532
 H    4.127300   -3.239071   -1.550816
 H    4.082008    1.068433   -1.971467
 H   -2.959071   -2.053292    0.713431
 H   -3.948957   -1.580627    3.172001
 H    5.212947   -1.132954   -2.374006
}
set optking { 
  frozen_dihedral = ("
    2 1 12 13
    7 1 2 3
    1 2 3 4
  ")
}
set {
  geom_maxiter 400
  g_convergence GAU_LOOSE
  dynamic_level 1
}
memory 8.166666666666666GB
set_num_threads(2)
psi4_io.set_default_path("/scratch/bdw2292/Psi4-1_16_Index_0-farH_in17")
for _ in range(1):
  try:
    set opt_coordinates both
    optimize('wb97x-d/6-311G')
    break
  except OptimizationConvergenceError:
    break
  else:
    try:
      set opt_coordinates cartesian
      optimize('wb97x-d/6-311G')
      break
    except OptimizationConvergenceError:
      pass
clean()
