molecule { 
0 1
 C   -0.520946   -0.193316    0.319837
 N    0.738847   -0.751027    0.534283
 C    2.018970   -0.514216   -0.032264
 C    2.338166   -0.695029   -1.399321
 H    0.775005   -1.305897    1.411002
 C    3.020710   -0.001914    0.836640
 C   -1.521601   -0.442288    1.272698
 N   -2.478524   -1.091193    3.235535
 C   -2.947065   -0.205104    1.216447
 C   -1.264420   -1.054986    2.595657
 C   -3.483292   -0.590098    2.406518
 C   -0.820583    0.636343   -0.882836
 C   -1.429883    1.910087   -0.724871
 C   -0.731247    0.096491   -2.191925
 C   -1.823438    2.660507   -1.840056
 C   -1.118935    0.851837   -3.306739
 C   -1.656670    2.143001   -3.139483
 C    3.613265   -0.366002   -1.881918
 C    4.292531    0.322531    0.346767
 C    4.599444    0.146866   -1.016447
 H    1.612753   -1.113681   -2.090832
 H    2.798511    0.144312    1.896739
 H   -2.582995   -1.450918    4.173024
 O   -0.175534   -1.472907    3.064823
 H   -1.576851    2.312137    0.279659
 H   -0.383646   -0.926470   -2.332360
 H   -2.261640    3.649962   -1.698893
 H   -1.012614    0.432609   -4.308911
 H   -1.953573    2.732699   -4.008627
 H    3.839113   -0.514623   -2.939413
 H    5.045413    0.714903    1.032528
 H   -3.499039    0.214355    0.386760
 H   -4.507010   -0.555645    2.752147
 H    5.589938    0.402014   -1.397279
}
set optking { 
  frozen_dihedral = ("
    1 2 3 4
    2 1 12 13
    7 1 2 3
  ")
}
set {
  geom_maxiter 400
  g_convergence GAU_LOOSE
  dynamic_level 1
}
memory 8.166666666666666GB
set_num_threads(2)
psi4_io.set_default_path("/scratch/bdw2292/Psi4-1_16_Index_0-farH_in17")
for _ in range(1):
  try:
    set opt_coordinates both
    optimize('wb97x-d/6-311G')
    break
  except OptimizationConvergenceError:
    break
  else:
    try:
      set opt_coordinates cartesian
      optimize('wb97x-d/6-311G')
      break
    except OptimizationConvergenceError:
      pass
clean()
