molecule { 
0 1
 C   -0.546650   -0.160206    0.348469
 N    0.617440   -0.870887    0.312231
 C    1.878656   -0.586085   -0.256390
 C    2.862202   -1.572321   -0.083171
 H    0.615199   -1.653865    0.972993
 C    2.233122    0.618587   -0.875937
 C   -1.528388   -0.546916    1.235246
 N   -2.526341   -1.710176    2.898193
 C   -2.890232   -0.059658    1.409818
 C   -1.340128   -1.624701    2.203834
 C   -3.453149   -0.769730    2.412825
 C   -0.826827    0.895884   -0.657013
 C   -1.245423    2.166843   -0.256469
 C   -0.746497    0.594552   -2.021697
 C   -1.553682    3.135664   -1.209303
 C   -1.062617    1.560391   -2.969888
 C   -1.462013    2.834727   -2.566003
 C    4.150425   -1.382354   -0.564492
 C    3.528080    0.795830   -1.358495
 C    4.491641   -0.198047   -1.215981
 H    2.603790   -2.491541    0.426992
 H    1.524868    1.423104   -0.974243
 H   -2.685283   -2.378593    3.626617
 O   -0.328609   -2.362656    2.380157
 H   -1.312273    2.395002    0.798545
 H   -0.430046   -0.392524   -2.330271
 H   -1.865099    4.121244   -0.891526
 H   -0.999120    1.320723   -4.022361
 H   -1.703508    3.585952   -3.305444
 H    4.889451   -2.159450   -0.424714
 H    3.781978    1.731185   -1.838909
 H   -3.365859    0.715315    0.836114
 H   -4.440026   -0.706912    2.834360
 H    5.493753   -0.048615   -1.592594
}
memory 8.166666666666666GB
set_num_threads(2)
psi4_io.set_default_path("/scratch/bdw2292/Psi4-1_16_Index_0-farH_in17")
set freeze_core True
E, wfn = energy('wb97x-d/6-311+G*',return_wfn=True)
oeprop(wfn,"WIBERG_LOWDIN_INDICES")
clean()
