molecule { 
0 1
 C   -0.608157   -0.202617    0.337664
 N    0.467291   -1.058992    0.242167
 C    1.659750   -1.003754   -0.525503
 C    2.263654   -2.227325   -0.918314
 H    0.462523   -1.769240    0.989202
 C    2.311395    0.213249   -0.849468
 C   -1.475680   -0.378452    1.405217
 N   -2.354933   -0.062945    3.462098
 C   -2.598152   -1.267416    1.568685
 C   -1.343316    0.397445    2.651160
 C   -3.103617   -1.049907    2.813279
 C   -0.784698    0.951634   -0.575610
 C   -1.288947    0.756653   -1.883773
 C   -0.472175    2.263053   -0.141089
 C   -1.456957    1.850039   -2.744540
 C   -0.642962    3.352773   -1.004372
 C   -1.132727    3.153165   -2.311980
 C    3.462555   -2.225767   -1.644690
 C    3.510637    0.203756   -1.575887
 C    4.094289   -1.012591   -1.982546
 H    1.791626   -3.178768   -0.662093
 H    1.896608    1.169333   -0.533895
 H   -2.497907    0.299141    4.393582
 O   -0.511756    1.281034    2.957268
 H   -1.542631   -0.251227   -2.217261
 H   -0.096868    2.412912    0.873239
 H   -1.839248    1.689630   -3.754220
 H   -0.392668    4.357739   -0.660666
 H   -1.261435    4.002963   -2.984853
 H    3.904823   -3.176546   -1.947099
 H    3.992761    1.151401   -1.821995
 H   -2.970253   -1.980828    0.847145
 H   -3.936847   -1.519692    3.317261
 H    5.027179   -1.014508   -2.549217
}
set optking { 
  frozen_dihedral = ("
    2 1 12 13
    7 1 2 3
    1 2 3 4
  ")
}
set {
  geom_maxiter 400
  g_convergence GAU_LOOSE
  dynamic_level 1
}
memory 8.166666666666666GB
set_num_threads(2)
psi4_io.set_default_path("/scratch/bdw2292/Psi4-1_16_Index_0-farH_in17")
for _ in range(1):
  try:
    set opt_coordinates both
    optimize('wb97x-d/6-311G')
    break
  except OptimizationConvergenceError:
    break
  else:
    try:
      set opt_coordinates cartesian
      optimize('wb97x-d/6-311G')
      break
    except OptimizationConvergenceError:
      pass
clean()
