molecule { 
0 1
 C   -0.512019   -0.070304    0.440310
 N    0.630224   -0.822161    0.458578
 C    1.872447   -0.558249   -0.168459
 C    2.653784   -1.649672   -0.558169
 H    0.643469   -1.533023    1.195960
 C    2.359322    0.739385   -0.352284
 C   -1.486507   -0.378938    1.377673
 N   -2.403048   -1.393235    3.190072
 C   -2.886742    0.014629    1.504707
 C   -1.232024   -1.324677    2.468111
 C   -3.395947   -0.601847    2.594646
 C   -0.779208    0.826910   -0.716904
 C   -1.671747    1.901080   -0.605937
 C   -0.317035    0.478701   -1.996593
 C   -2.041101    2.643504   -1.723746
 C   -0.690287    1.217187   -3.112768
 C   -1.551266    2.305240   -2.981854
 C    3.899082   -1.444304   -1.144512
 C    3.596441    0.936852   -0.956874
 C    4.371730   -0.150730   -1.356378
 H    2.273559   -2.650847   -0.405637
 H    1.773338    1.584794   -0.022332
 H   -2.510349   -1.979614    3.994599
 O   -0.188794   -1.993929    2.719313
 H   -2.025598    2.199870    0.369370
 H    0.321966   -0.381744   -2.123152
 H   -2.710011    3.485315   -1.608841
 H   -0.317172    0.934034   -4.087259
 H   -1.840498    2.878845   -3.851727
 H    4.496268   -2.295785   -1.440736
 H    3.962089    1.944320   -1.101311
 H   -3.447231    0.638091    0.834362
 H   -4.390336   -0.568060    3.001482
 H    5.335891    0.008288   -1.818635
}
memory 8.166666666666666GB
set_num_threads(2)
psi4_io.set_default_path("/scratch/bdw2292/Psi4-1_16_Index_0-farH_in17")
set freeze_core True
E, wfn = energy('wb97x-d/6-311+G*',return_wfn=True)
oeprop(wfn,"WIBERG_LOWDIN_INDICES")
clean()
