molecule { 
0 1
 C   -0.617552   -0.330072    0.262939
 N    0.430668   -1.143572   -0.041655
 C    1.689201   -0.720939   -0.559771
 C    2.480379    0.180415    0.153576
 H    0.332519   -2.106851    0.289686
 C    2.161085   -1.269249   -1.752195
 C   -1.652912   -0.821580    1.029100
 N   -2.821138   -2.308047    2.267723
 C   -2.914886   -0.217897    1.434762
 C   -1.640271   -2.175805    1.568951
 C   -3.585102   -1.130706    2.174142
 C   -0.611451    1.065103   -0.246564
 C   -0.860590    2.133734    0.620538
 C   -0.373635    1.323927   -1.600909
 C   -0.860680    3.441344    0.142230
 C   -0.381205    2.629945   -2.077410
 C   -0.621288    3.692020   -1.206779
 C    3.720471    0.563574   -0.347346
 C    3.409758   -0.895382   -2.242416
 C    4.189047    0.026008   -1.545039
 H    2.114062    0.578591    1.089348
 H    1.543345   -1.977625   -2.287314
 H   -3.083729   -3.150105    2.741540
 O   -0.761574   -3.076103    1.430927
 H   -1.036439    1.936264    1.669066
 H   -0.185637    0.502070   -2.277182
 H   -1.043403    4.261740    0.822751
 H   -0.198448    2.818688   -3.126171
 H   -0.621971    4.707630   -1.578266
 H    4.324974    1.270969    0.203517
 H    3.772397   -1.321525   -3.167763
 H   -3.260848    0.767348    1.178020
 H   -4.547432   -1.063768    2.648674
 H    5.155851    0.319575   -1.929844
}
memory 8.166666666666666GB
set_num_threads(2)
psi4_io.set_default_path("/scratch/bdw2292/Psi4-1_16_Index_0-farH_in17")
set freeze_core True
E, wfn = energy('wb97x-d/6-311+G*',return_wfn=True)
oeprop(wfn,"WIBERG_LOWDIN_INDICES")
clean()
