molecule { 
0 1
 C   -0.285401   -0.511238    0.110602
 N    0.620953   -0.728532   -0.912628
 C    1.636766    0.044848   -1.541653
 C    1.887334   -0.215456   -2.894259
 H    0.714475   -1.703380   -1.142503
 C    2.578393    0.786700   -0.819954
 C   -0.882040   -1.642197    0.640398
 N   -1.802896   -3.120809    2.106983
 C   -0.736660   -3.012632    0.142397
 C   -1.585814   -1.753837    1.939488
 C   -1.310851   -3.853185    1.028676
 C   -0.785583    0.858562    0.441435
 C   -2.156378    0.972506    0.735041
 C   -0.022235    2.033383    0.487574
 C   -2.735557    2.193882    1.046002
 C   -0.602683    3.260713    0.797691
 C   -1.960260    3.349147    1.081131
 C    2.975182    0.362929   -3.539287
 C    3.655932    1.380746   -1.470070
 C    3.853283    1.183566   -2.834751
 H    1.198118   -0.843360   -3.444126
 H    2.505791    0.845004    0.255268
 H   -2.248509   -3.486902    2.925315
 O   -1.901817   -0.908204    2.799778
 H   -2.780232    0.095709    0.688948
 H    1.030978    2.022723    0.292195
 H   -3.792995    2.238185    1.265355
 H    0.017671    4.146134    0.822508
 H   -2.407729    4.302934    1.325871
 H    3.137104    0.168425   -4.590546
 H    4.364403    1.963440   -0.897249
 H   -0.337551   -3.325049   -0.808571
 H   -1.444832   -4.919032    0.975104
 H    4.696007    1.638566   -3.335609
}
memory 8.166666666666666GB
set_num_threads(2)
psi4_io.set_default_path("/scratch/bdw2292/Psi4-1_16_Index_0-farH_in17")
set freeze_core True
E, wfn = energy('wb97x-d/6-311+G*',return_wfn=True)
oeprop(wfn,"WIBERG_LOWDIN_INDICES")
clean()
