molecule { 
0 1
 H    0.471144    0.983567   -0.459636
 N    0.300458    0.062968   -0.039864
 C    1.364293   -0.813139    0.145867
 C    2.351690   -0.894698   -0.835809
 C   -0.979101   -0.148599    0.293198
 C    1.434169   -1.652609    1.256091
 C   -1.931364    0.798542    0.050518
 N   -2.804373    2.762174   -0.624328
 C   -3.338470    0.817356    0.346626
 C   -1.620393    2.081466   -0.575461
 C   -3.823559    2.002764   -0.070545
 C    2.485724   -2.540329    1.387286
 C    3.400857   -1.780900   -0.692772
 C    3.470688   -2.609112    0.416506
 H    0.677770   -1.591521    2.024261
 H    2.289767   -0.247380   -1.697910
 H   -2.911783    3.688585   -1.001702
 O   -0.533087    2.496441   -0.976876
 H    2.538014   -3.179168    2.256491
 H    4.163292   -1.834904   -1.455562
 H   -3.885700    0.022258    0.812370
 H   -4.822046    2.392590   -0.022599
 H    4.290043   -3.303353    0.524198
 H   -1.222282   -1.074020    0.800933
}
memory 20GB
set_num_threads(5)
psi4_io.set_default_path("/scratch/liuchw/Psi4-1_16_Index_0-farH_in17")
set freeze_core True
E, wfn = energy('wb97x-d/6-311+G*',return_wfn=True)
oeprop(wfn,"WIBERG_LOWDIN_INDICES")
clean()
