molecule { 
0 1
 H   -0.616106   -0.680025   -0.798516
 N    0.032547   -0.337623   -0.080321
 C    1.198428   -1.050904    0.122165
 C    2.242890   -0.600337    0.930295
 C   -0.391272    0.781418    0.524224
 C    1.335232   -2.274056   -0.539700
 C   -1.592635    1.338565    0.193830
 N   -3.555357    1.609045   -0.879494
 C   -2.231278    2.535974    0.669213
 C   -2.481377    0.766178   -0.816687
 C   -3.398442    2.661907    0.008466
 C    2.477924   -3.031189   -0.382964
 C    3.382854   -1.367189    1.080297
 C    3.507707   -2.583110    0.429853
 H    0.531400   -2.619067   -1.173679
 H    2.171558    0.346731    1.442015
 H   -4.343196    1.480244   -1.491780
 O   -2.322419   -0.249959   -1.492075
 H    2.568105   -3.975807   -0.898345
 H    4.183570   -1.007410    1.709577
 H   -1.838359    3.194777    1.417584
 H   -4.152832    3.421131    0.084159
 H    4.401551   -3.175285    0.551944
 H    0.255260    1.254967    1.251224
}
memory 20GB
set_num_threads(5)
psi4_io.set_default_path("/scratch/liuchw/Psi4-1_16_Index_0-farH_in17")
set freeze_core True
E, wfn = energy('wb97x-d/6-311+G*',return_wfn=True)
oeprop(wfn,"WIBERG_LOWDIN_INDICES")
clean()
