molecule { 
0 1
 H    0.099059    0.364684   -1.199864
 N    0.200111   -0.114741   -0.298955
 C    1.294357   -0.948450   -0.059406
 C    2.584590   -0.484102   -0.305467
 C   -0.775477    0.154792    0.576359
 C    1.115228   -2.202030    0.520011
 C   -1.816704    0.970485    0.240749
 N   -3.070697    2.343184   -1.029668
 C   -2.942091    1.429177    1.009500
 C   -1.932577    1.587657   -1.077646
 C   -3.668008    2.241763    0.217422
 C    2.211212   -2.994888    0.806453
 C    3.673639   -1.285717   -0.021878
 C    3.491202   -2.541440    0.535286
 H    0.114800   -2.553558    0.725506
 H    2.718698    0.496622   -0.736991
 H   -3.419761    2.892462   -1.796868
 O   -1.177469    1.481078   -2.044247
 H    2.064508   -3.971336    1.243962
 H    4.670989   -0.923313   -0.221974
 H   -3.152484    1.159498    2.025187
 H   -4.576746    2.772974    0.425528
 H    4.344562   -3.163059    0.760099
 H   -0.685188   -0.272761    1.568184
}
memory 20GB
set_num_threads(5)
psi4_io.set_default_path("/scratch/liuchw/Psi4-1_16_Index_0-farH_in17")
set freeze_core True
E, wfn = energy('wb97x-d/6-311+G*',return_wfn=True)
oeprop(wfn,"WIBERG_LOWDIN_INDICES")
clean()
