molecule { 
0 1
 H    0.256414    0.571245   -0.949496
 N    0.218529   -0.078475   -0.156031
 C    1.291951   -0.926685    0.054043
 C    2.526222   -0.585272   -0.502748
 C   -0.901700    0.030741    0.571626
 C    1.189406   -2.091530    0.814389
 C   -1.883436    0.909374    0.216329
 N   -2.932651    2.511781   -0.969983
 C   -3.134639    1.225380    0.850833
 C   -1.785121    1.769470   -0.961773
 C   -3.732295    2.180881    0.113015
 C    2.299734   -2.891270    1.008642
 C    3.627696   -1.392935   -0.304923
 C    3.521435   -2.547488    0.454999
 H    0.239765   -2.383207    1.236108
 H    2.603697    0.315080   -1.094409
 H   -3.158823    3.200847   -1.667302
 O   -0.872827    1.843326   -1.784189
 H    2.207277   -3.794032    1.594324
 H    4.576818   -1.119102   -0.741105
 H   -3.509616    0.769345    1.745214
 H   -4.675086    2.672249    0.257881
 H    4.384109   -3.177018    0.610568
 H   -0.991104   -0.573730    1.465268
}
memory 20GB
set_num_threads(5)
psi4_io.set_default_path("/scratch/liuchw/Psi4-1_16_Index_0-farH_in17")
set freeze_core True
E, wfn = energy('wb97x-d/6-311+G*',return_wfn=True)
oeprop(wfn,"WIBERG_LOWDIN_INDICES")
clean()
