molecule { 
0 1
 H   -0.495323   -0.515812   -1.038395
 N    0.035304   -0.341302   -0.178400
 C    1.193025   -1.068515    0.074779
 C    2.316969   -0.476596    0.648521
 C   -0.486425    0.619310    0.595709
 C    1.259076   -2.398182   -0.340511
 C   -1.638887    1.258676    0.242597
 N   -3.446002    1.784505   -0.994618
 C   -2.355303    2.328625    0.882869
 C   -2.373553    0.937253   -0.978774
 C   -3.426161    2.612976    0.116896
 C    2.407765   -3.134874   -0.128794
 C    3.460040   -1.223896    0.861568
 C    3.509138   -2.554262    0.480217
 H    0.399546   -2.842744   -0.819782
 H    2.291267    0.566116    0.927911
 H   -4.142499    1.806275   -1.720262
 O   -2.107106    0.094618   -1.835368
 H    2.446436   -4.167444   -0.442371
 H    4.323830   -0.758821    1.313240
 H   -2.075233    2.799550    1.803905
 H   -4.196023    3.347143    0.256686
 H    4.405298   -3.132584    0.645695
 H    0.060573    0.898963    1.487965
}
memory 20GB
set_num_threads(5)
psi4_io.set_default_path("/scratch/liuchw/Psi4-1_16_Index_0-farH_in17")
set freeze_core True
E, wfn = energy('wb97x-d/6-311+G*',return_wfn=True)
oeprop(wfn,"WIBERG_LOWDIN_INDICES")
clean()
