%RWF=/scratch/bdw2292/Gau-7_1_Index_0_GrowFragment_0-farH_in17/,16.666666666666668GB
%Nosave
%Chk=7_1_Index_0_GrowFragment_0-dma_temp.chk
%Mem=8.333333333333334GB
%Nproc=1
#P MP2/6-311G** Sp Density=MP2 MaxDisk=16.666666666666668GB 

7_1_Index_0_GrowFragment_0 Gaussian SP Calculation on node44.bme.utexas.edu

0 1
 C   -0.658856    1.548507    0.152178
 C   -0.788187    0.212719    0.407795
 N    0.121530   -0.403216    1.287404
 C    1.474073   -0.645758    0.905535
 H   -0.288162   -1.246471    1.686579
 C    0.330385    2.438592    0.721659
 N   -0.954797    3.634072   -0.695455
 C   -1.507109    2.359082   -0.775849
 C    0.112936    3.671539    0.198744
 C   -1.871560   -0.650599   -0.092061
 C   -3.221690   -0.314067    0.068309
 C   -1.528116   -1.892630   -0.649975
 C   -4.211931   -1.195812   -0.354682
 C   -2.524166   -2.763384   -1.085540
 C   -3.868011   -2.419582   -0.932855
 C    2.308230   -1.303776    1.816424
 C    2.013618   -0.209583   -0.309008
 C    3.633978   -1.576412    1.497464
 C    3.345572   -0.473892   -0.617101
 C    4.182930   -1.140523    0.284924
 H   -1.335704    4.416020   -1.210963
 O   -2.467196    2.051351   -1.480533
 H   -3.485303    0.639094    0.515879
 H   -0.477905   -2.153485   -0.769625
 H   -5.258426   -0.931015   -0.226706
 H   -2.251781   -3.714384   -1.536550
 H   -4.645894   -3.102480   -1.265063
 H    1.904915   -1.624243    2.775313
 H    1.386537    0.306204   -1.029764
 H    4.261225   -2.101880    2.215531
 H    3.746293   -0.139268   -1.572542
 N    5.506737   -1.463271   -0.065859
 H    1.078216    2.172502    1.454816
 H    0.630385    4.602647    0.392758
 H    6.109684   -1.589206    0.741082
 H    5.923314   -0.788744   -0.699629



