molecule { 
0 1
 C   -0.000084    0.000082    0.000095
 H   -0.676518    0.853273   -0.085717
 H   -0.394038   -0.836372   -0.581791
 H    0.086307   -0.293963    1.048557
 H    0.985247    0.276089   -0.382179
}
set {
  geom_maxiter 3
  g_convergence GAU_LOOSE
}
memory 700MB
set_num_threads(1)
psi4_io.set_default_path("/scratch/bdw2292/Psi4-methane")
for _ in range(1):
  try:
    optimize('mp2/6-31G*')
    break
  except OptimizationConvergenceError:
    try:
      set opt_coordinates cartesian
      optimize('mp2/6-31G*')
      break
    except OptimizationConvergenceError:
      pass
clean()
