molecule { 
0 1
C           -0.000083863354     0.000081788773     0.000094927784
H           -0.676517863354     0.853272788773    -0.085717072216
H           -0.394037863354    -0.836372211227    -0.581791072216
H            0.086307136646    -0.293963211227     1.048556927784
H            0.985247136646     0.276088788773    -0.382179072216
}
memory 700MB
set_num_threads(1)
psi4_io.set_default_path("/scratch/bdw2292/Psi4-methane")
set maxiter 300
set freeze_core True
set PROPERTIES_ORIGIN ["COM"]
E, wfn = properties('mp2/aug-cc-pVTZ',properties=['dipole'],return_wfn=True)
oeprop(wfn,"GRID_ESP","WIBERG_LOWDIN_INDICES","MULLIKEN_CHARGES")
clean()
