molecule { 
0 1
 N   -0.151115    0.544455   -0.483231
 C    0.949203    0.633912    0.404099
 C    2.329587    0.903589   -0.256164
 N    3.076406   -0.320113   -0.611531
 O    0.819572    0.534379    1.624765
 H    2.269991    1.567299   -1.135403
 H    2.952669    1.464706    0.462749
 C   -1.493067    0.401703    0.050146
 C   -4.127843    0.129456    1.037548
 C   -3.129325   -0.767028    1.440448
 C   -3.812839    1.162496    0.144850
 C   -1.819771   -0.640316    0.957404
 C   -2.509138    1.306392   -0.351094
 C    0.009233    0.261957   -1.931395
 C    4.210441   -0.025951   -1.507926
 C    3.551047   -1.039356    0.591761
 H   -3.368196   -1.573817    2.135688
 H   -4.585957    1.864365   -0.173306
 H   -1.051396   -1.342911    1.284315
 H   -2.282135    2.117547   -1.046162
 H   -0.881175   -0.220651   -2.336601
 H    0.175149    1.190685   -2.477415
 H    0.849706   -0.411440   -2.104280
 H    3.835934    0.437291   -2.435720
 H    4.935373    0.651575   -1.025617
 H    4.279226   -0.435412    1.158915
 H    2.695450   -1.269469    1.247496
 H   -5.145694    0.023127    1.417875
 H    4.714982   -0.965329   -1.787419
 H    4.013757   -1.994669    0.295081
}
set optking { 
  frozen_dihedral = ("
    1 2 3 4
    2 1 8 12
    8 1 2 3
    2 3 4 15
  ")
}
set {
  geom_maxiter 400
  g_convergence GAU_LOOSE
  dynamic_level 1
}
memory 8.166666666666666GB
set_num_threads(2)
psi4_io.set_default_path("/scratch/bdw2292/Psi4-25_27_Index_0-farH_in17")
for _ in range(1):
  try:
    set opt_coordinates both
    optimize('wb97x-d/6-311G')
    break
  except OptimizationConvergenceError:
    break
  else:
    try:
      set opt_coordinates cartesian
      optimize('wb97x-d/6-311G')
      break
    except OptimizationConvergenceError:
      pass
clean()
