molecule { 
0 1
 N   -0.077807    0.099858   -0.229213
 C    0.894226    0.807915    0.533891
 C    2.408599    0.886990    0.155827
 N    3.037903    0.202687   -1.002511
 O    0.533473    1.426051    1.536703
 H    2.676140    1.954870    0.076189
 H    2.974724    0.563996    1.048444
 C   -1.476190    0.180231    0.188702
 C   -4.172239    0.416560    1.037730
 C   -3.194521   -0.056351    1.921028
 C   -3.806380    0.793608   -0.259658
 C   -1.857968   -0.166472    1.514308
 C   -2.474642    0.692619   -0.687413
 C    0.173572   -0.564130   -1.531529
 C    4.389597    0.759007   -1.271943
 C    3.213553   -1.251541   -0.704943
 H   -3.471168   -0.342832    2.937233
 H   -4.561579    1.174427   -0.949924
 H   -1.108740   -0.521740    2.224053
 H   -2.218513    1.023580   -1.695779
 H   -0.697898   -0.520888   -2.182059
 H    0.985870   -0.087364   -2.074810
 H    0.397299   -1.618451   -1.376916
 H    4.293259    1.820559   -1.554268
 H    5.051347    0.677659   -0.392502
 H    3.967780   -1.416904    0.083692
 H    2.271158   -1.701353   -0.363538
 H   -5.212139    0.496202    1.360653
 H    4.845228    0.233421   -2.127443
 H    3.526131   -1.773747   -1.624131
}
set optking { 
  frozen_dihedral = ("
    1 2 3 4
    2 1 8 12
    8 1 2 3
    2 3 4 15
  ")
}
set {
  geom_maxiter 400
  g_convergence GAU_LOOSE
  dynamic_level 1
}
memory 8.166666666666666GB
set_num_threads(2)
psi4_io.set_default_path("/scratch/bdw2292/Psi4-25_27_Index_0-farH_in17")
for _ in range(1):
  try:
    set opt_coordinates both
    optimize('wb97x-d/6-311G')
    break
  except OptimizationConvergenceError:
    break
  else:
    try:
      set opt_coordinates cartesian
      optimize('wb97x-d/6-311G')
      break
    except OptimizationConvergenceError:
      pass
clean()
