molecule { 
0 1
 N   -0.059224    0.292709   -0.309948
 C    0.927874    0.846023    0.550230
 C    2.404303    0.988168    0.071696
 N    2.989199    0.013830   -0.874239
 O    0.620842    1.253635    1.670825
 H    2.552790    1.996818   -0.350802
 H    3.048629    0.986949    0.969051
 C   -1.445175    0.264219    0.137115
 C   -4.134370    0.258159    1.024522
 C   -3.135449   -0.342750    1.800665
 C   -3.793294    0.873711   -0.186258
 C   -1.800847   -0.340321    1.372909
 C   -2.463585    0.891379   -0.631056
 C    0.209713   -0.224198   -1.673670
 C    4.264505    0.499203   -1.439082
 C    3.195633   -1.299201   -0.221500
 H   -3.393735   -0.818204    2.748557
 H   -4.566407    1.348088   -0.793644
 H   -1.034131   -0.803143    1.996740
 H   -2.220268    1.396141   -1.568332
 H   -0.708908   -0.358040   -2.244197
 H    0.845776    0.464398   -2.228535
 H    0.700464   -1.194487   -1.617732
 H    4.089641    1.440839   -1.985224
 H    5.014135    0.669318   -0.647542
 H    3.933690   -1.228902    0.595599
 H    2.242971   -1.669465    0.191461
 H   -5.172137    0.250495    1.363641
 H    4.653376   -0.235585   -2.163030
 H    3.544064   -2.031318   -0.968346
}
set optking { 
  frozen_dihedral = ("
    1 2 3 4
    2 1 8 12
    8 1 2 3
    2 3 4 15
  ")
}
set {
  geom_maxiter 400
  g_convergence GAU_LOOSE
  dynamic_level 1
}
memory 8.166666666666666GB
set_num_threads(2)
psi4_io.set_default_path("/scratch/bdw2292/Psi4-25_27_Index_0-farH_in17")
for _ in range(1):
  try:
    set opt_coordinates both
    optimize('wb97x-d/6-311G')
    break
  except OptimizationConvergenceError:
    break
  else:
    try:
      set opt_coordinates cartesian
      optimize('wb97x-d/6-311G')
      break
    except OptimizationConvergenceError:
      pass
clean()
