molecule { 
0 1
 N   -0.092393    0.174310   -0.548130
 C    0.754180   -0.958154   -0.437619
 C    2.191382   -0.840526   -1.024357
 N    3.231669   -0.330736   -0.093084
 O    0.392585   -1.974815    0.154240
 H    2.522770   -1.834950   -1.368768
 H    2.225824   -0.221720   -1.936845
 C   -1.397534    0.143447    0.085570
 C   -3.946350    0.151623    1.307925
 C   -3.588862   -0.883030    0.433422
 C   -3.034834    1.182487    1.571115
 C   -2.328004   -0.896321   -0.178554
 C   -1.768402    1.188149    0.969661
 C    0.063800    1.179934   -1.628701
 C    4.589180   -0.552396   -0.629966
 C    3.044153    1.090336    0.250371
 H   -4.295414   -1.687625    0.222342
 H   -3.307633    1.993458    2.248750
 H   -2.062429   -1.711647   -0.853514
 H   -1.070123    1.999311    1.186794
 H   -0.819700    1.815080   -1.705611
 H    0.918676    1.823693   -1.430346
 H    0.198113    0.687985   -2.592688
 H    4.744315   -1.630178   -0.801371
 H    4.741745   -0.003733   -1.574900
 H    3.116766    1.731782   -0.643687
 H    2.066000    1.229106    0.736738
 H   -4.930073    0.154478    1.781393
 H    5.338672   -0.227108    0.109934
 H    3.811995    1.396231    0.979756
}
set optking { 
  frozen_dihedral = ("
    1 2 3 4
    2 1 8 12
    8 1 2 3
    2 3 4 15
  ")
}
set {
  geom_maxiter 400
  g_convergence GAU_LOOSE
  dynamic_level 1
}
memory 8.166666666666666GB
set_num_threads(2)
psi4_io.set_default_path("/scratch/bdw2292/Psi4-25_27_Index_0-farH_in17")
for _ in range(1):
  try:
    set opt_coordinates both
    optimize('wb97x-d/6-311G')
    break
  except OptimizationConvergenceError:
    break
  else:
    try:
      set opt_coordinates cartesian
      optimize('wb97x-d/6-311G')
      break
    except OptimizationConvergenceError:
      pass
clean()
