molecule { 
0 1
 N   -0.025411   -0.208933   -0.264947
 C    0.926910    0.537910    0.400712
 C    2.413424    0.599722    0.028097
 N    2.990829   -0.185877   -1.065223
 O    0.634218    1.215445    1.405266
 H    2.581118    1.655123   -0.193320
 H    2.936239    0.401852    0.977544
 C   -1.399495   -0.084062    0.165721
 C   -4.053456    0.135363    1.038359
 C   -3.041856   -0.201927    1.936656
 C   -3.731154    0.366628   -0.294224
 C   -1.725335   -0.311869    1.506206
 C   -2.410923    0.262712   -0.730299
 C    0.170319   -0.760930   -1.616131
 C    4.324649    0.314028   -1.419620
 C    3.085749   -1.609646   -0.692571
 H   -3.277224   -0.378471    2.977250
 H   -4.502742    0.636727   -1.002383
 H   -0.944069   -0.558120    2.206703
 H   -2.187979    0.467970   -1.765912
 H   -0.440469   -0.231049   -2.344992
 H    1.203911   -0.636857   -1.915604
 H   -0.113429   -1.813001   -1.626752
 H    4.257013    1.347331   -1.759038
 H    5.025338    0.267770   -0.569669
 H    3.792756   -1.763650    0.138077
 H    2.114246   -1.987175   -0.379441
 H   -5.077373    0.220132    1.375406
 H    4.729040   -0.285887   -2.234078
 H    3.422635   -2.192300   -1.549300
}
memory 8.166666666666666GB
set_num_threads(2)
psi4_io.set_default_path("/scratch/bdw2292/Psi4-25_27_Index_0-farH_in17")
set freeze_core True
E, wfn = energy('wb97x-d/6-311+G*',return_wfn=True)
oeprop(wfn,"WIBERG_LOWDIN_INDICES")
clean()
