molecule { 
0 1
 N    0.074114   -0.382193   -0.245234
 C    0.822289   -0.308446    0.917719
 C    2.336486   -0.483824    0.872769
 N    3.100456    0.471303    0.064945
 O    0.292168   -0.018908    2.004856
 H    2.640190   -0.348956    1.907310
 H    2.581796   -1.533260    0.604686
 C   -1.338042   -0.089121   -0.191876
 C   -4.071653    0.455578   -0.235659
 C   -3.554665   -0.468980    0.671439
 C   -3.216902    1.110226   -1.120297
 C   -2.190898   -0.748413    0.692847
 C   -1.850150    0.841763   -1.094167
 C    0.438938   -1.267960   -1.362015
 C    4.527117    0.382813    0.359468
 C    2.833517    0.640661   -1.353418
 H   -4.212634   -0.972160    1.366951
 H   -3.609430    1.834637   -1.821174
 H   -1.784776   -1.446341    1.408473
 H   -1.173329    1.358558   -1.761824
 H   -0.216820   -2.147208   -1.362870
 H    0.326929   -0.748858   -2.317798
 H    1.469179   -1.603618   -1.270208
 H    4.690614    0.453848    1.435163
 H    4.979450   -0.561139    0.003168
 H    3.119272   -0.232304   -1.968120
 H    1.784515    0.869763   -1.520307
 H   -5.131918    0.668471   -0.248139
 H    5.052425    1.211732   -0.115866
 H    3.416122    1.493231   -1.706440
}
memory 8.166666666666666GB
set_num_threads(2)
psi4_io.set_default_path("/scratch/bdw2292/Psi4-25_27_Index_0-farH_in17")
set freeze_core True
E, wfn = energy('wb97x-d/6-311+G*',return_wfn=True)
oeprop(wfn,"WIBERG_LOWDIN_INDICES")
clean()
