molecule { 
0 1
 N   -0.128484    0.262298   -0.549676
 C    0.940896    0.519249    0.272122
 C    2.278079    0.780908   -0.399642
 N    3.040453   -0.461299   -0.569536
 O    0.837235    0.576346    1.511854
 H    2.149689    1.245566   -1.375493
 H    2.807600    1.497823    0.246552
 C   -1.447846    0.107985   -0.008522
 C   -4.053136   -0.204983    0.939633
 C   -3.013427   -0.961762    1.477579
 C   -3.786473    0.709983   -0.076336
 C   -1.713179   -0.814709    1.002662
 C   -2.485669    0.870140   -0.545948
 C    0.045407    0.025659   -1.989199
 C    4.170322   -0.291867   -1.481585
 C    3.441827   -1.076325    0.697166
 H   -3.214498   -1.671572    2.268268
 H   -4.585404    1.306062   -0.495926
 H   -0.904195   -1.390437    1.423695
 H   -2.268750    1.591675   -1.322311
 H   -0.795828   -0.564476   -2.343156
 H    0.081061    0.956194   -2.560794
 H    0.957259   -0.543952   -2.158535
 H    3.819485    0.075938   -2.446600
 H    4.925973    0.412609   -1.093028
 H    4.173078   -0.455178    1.241132
 H    2.578812   -1.215899    1.342574
 H   -5.061357   -0.325234    1.311506
 H    4.654032   -1.254964   -1.642547
 H    3.890074   -2.048820    0.495557
}
memory 8.166666666666666GB
set_num_threads(2)
psi4_io.set_default_path("/scratch/bdw2292/Psi4-25_27_Index_0-farH_in17")
set freeze_core True
E, wfn = energy('wb97x-d/6-311+G*',return_wfn=True)
oeprop(wfn,"WIBERG_LOWDIN_INDICES")
clean()
