molecule { 
0 1
 N   -0.179135    0.233480   -0.671430
 C    0.792448   -0.761523   -0.398633
 C    2.188969   -0.595264   -1.068445
 N    3.304334   -0.461425   -0.107176
 O    0.557962   -1.691355    0.372580
 H    2.403795   -1.469287   -1.706666
 H    2.250722    0.265393   -1.754185
 C   -1.458474    0.185243    0.012406
 C   -3.956789    0.140630    1.334963
 C   -3.509530   -0.989214    0.637581
 C   -3.159059    1.291610    1.373972
 C   -2.272777   -0.977201   -0.021667
 C   -1.917707    1.323758    0.723004
 C   -0.096167    1.148244   -1.834931
 C    4.614046   -0.621426   -0.766013
 C    3.242307    0.824537    0.616578
 H   -4.125786   -1.889338    0.603510
 H   -3.502208    2.175944    1.914105
 H   -1.934926   -1.866954   -0.555354
 H   -1.307702    2.228423    0.768617
 H   -1.060005    1.619589   -2.032491
 H    0.631514    1.936441   -1.639610
 H    0.188432    0.603056   -2.735435
 H    4.668974   -1.617573   -1.234964
 H    4.776677    0.156666   -1.531119
 H    3.329028    1.680845   -0.073420
 H    2.291608    0.892221    1.169896
 H   -4.921360    0.123583    1.845968
 H    5.415381   -0.568837   -0.010942
 H    4.055505    0.868205    1.359170
}
set optking { 
  frozen_dihedral = ("
    1 2 3 4
    2 1 8 12
    8 1 2 3
    2 3 4 15
  ")
}
set {
  geom_maxiter 400
  g_convergence GAU_LOOSE
  dynamic_level 1
}
memory 8.166666666666666GB
set_num_threads(2)
psi4_io.set_default_path("/scratch/bdw2292/Psi4-25_27_Index_0-farH_in17")
for _ in range(1):
  try:
    set opt_coordinates both
    optimize('wb97x-d/6-311G')
    break
  except OptimizationConvergenceError:
    break
  else:
    try:
      set opt_coordinates cartesian
      optimize('wb97x-d/6-311G')
      break
    except OptimizationConvergenceError:
      pass
clean()
