molecule { 
0 1
 N   -0.195779    0.279548   -0.699632
 C    0.762594   -0.686704   -0.458054
 C    2.107745   -0.565347   -1.166486
 N    3.190206   -0.430598   -0.197331
 O    0.558404   -1.635497    0.313403
 H    2.250843   -1.503155   -1.705378
 H    2.129287    0.247434   -1.907177
 C   -1.430119    0.250426    0.034805
 C   -3.847004    0.252191    1.435166
 C   -3.426360   -0.891378    0.758201
 C   -3.051905    1.395308    1.414138
 C   -2.225581   -0.895351    0.055224
 C   -1.843092    1.392906    0.722684
 C    0.021999    1.413552   -1.608071
 C    4.505267   -0.619062   -0.794773
 C    3.091918    0.776181    0.614403
 H   -4.034369   -1.785458    0.775236
 H   -3.363671    2.284977    1.944137
 H   -1.892334   -1.784021   -0.456325
 H   -1.214514    2.273679    0.726417
 H   -0.910455    1.963621   -1.694095
 H    0.793640    2.093471   -1.242900
 H    0.294969    1.072170   -2.605821
 H    4.547167   -1.586657   -1.295093
 H    4.762329    0.165427   -1.530717
 H    3.193470    1.702578    0.017787
 H    2.134426    0.800171    1.135083
 H   -4.782398    0.250532    1.977552
 H    5.263554   -0.612385   -0.011963
 H    3.877622    0.770058    1.369044
}
memory 8.166666666666666GB
set_num_threads(2)
psi4_io.set_default_path("/scratch/bdw2292/Psi4-25_27_Index_0-farH_in17")
set freeze_core True
E, wfn = energy('wb97x-d/6-311+G*',return_wfn=True)
oeprop(wfn,"WIBERG_LOWDIN_INDICES")
clean()
