molecule { 
0 1
 N   -0.091046    0.213355   -0.587349
 C    0.798226   -0.831648   -0.430489
 C    2.194782   -0.691272   -1.020156
 N    3.139304   -0.081762   -0.079715
 O    0.506461   -1.848694    0.219144
 H    2.530068   -1.709011   -1.205933
 H    2.179504   -0.162862   -1.989535
 C   -1.377331    0.155031    0.053967
 C   -3.884076    0.140369    1.279430
 C   -3.485368   -0.930457    0.481705
 C   -3.022855    1.219260    1.467121
 C   -2.238073   -0.924829   -0.136717
 C   -1.769233    1.222728    0.861836
 C    0.114113    1.286357   -1.571680
 C    4.521156   -0.230591   -0.519281
 C    2.840370    1.261233    0.395997
 H   -4.146132   -1.774555    0.339766
 H   -3.318744    2.050067    2.092885
 H   -1.920826   -1.760581   -0.739958
 H   -1.085841    2.046601    1.020911
 H   -0.725030    1.972737   -1.506590
 H    1.026717    1.845368   -1.383632
 H    0.146607    0.889366   -2.588571
 H    4.733049   -1.278438   -0.731320
 H    4.747450    0.360142   -1.425872
 H    2.968092    2.036494   -0.381718
 H    1.823574    1.309951    0.782443
 H   -4.854788    0.130487    1.755688
 H    5.193330    0.094804    0.274758
 H    3.516376    1.503142    1.216639
}
memory 8.166666666666666GB
set_num_threads(2)
psi4_io.set_default_path("/scratch/bdw2292/Psi4-25_27_Index_0-farH_in17")
set freeze_core True
E, wfn = energy('wb97x-d/6-311+G*',return_wfn=True)
oeprop(wfn,"WIBERG_LOWDIN_INDICES")
clean()
