molecule { 
0 1
 N   -0.235414    0.542526   -0.592879
 C    0.917964    0.385657    0.216742
 C    2.287590    0.677991   -0.471473
 N    3.230817   -0.464344   -0.478095
 O    0.832796    0.093948    1.412037
 H    2.211457    1.082721   -1.493202
 H    2.781634    1.491258    0.089934
 C   -1.550038    0.396175    0.003842
 C   -4.135757    0.130370    1.114702
 C   -3.192618   -0.893253    1.274593
 C   -3.790176    1.285759    0.401682
 C   -1.908125   -0.771691    0.727354
 C   -2.510434    1.427737   -0.153343
 C   -0.190472    0.464432   -2.073875
 C    4.354697   -0.234504   -1.407544
 C    3.755718   -0.752169    0.877052
 H   -3.456300   -1.796464    1.827530
 H   -4.520528    2.086403    0.271538
 H   -1.183280   -1.576158    0.862864
 H   -2.258756    2.336101   -0.704729
 H   -1.158211    0.165210   -2.478943
 H    0.066747    1.437101   -2.493882
 H    0.539488   -0.277889   -2.399479
 H    3.965604   -0.103114   -2.430759
 H    4.938255    0.655996   -1.118028
 H    4.357804    0.087159    1.263767
 H    2.913097   -0.929241    1.563415
 H   -5.134644    0.027442    1.543055
 H    5.013031   -1.118510   -1.416236
 H    4.368129   -1.668174    0.852235
}
set optking { 
  frozen_dihedral = ("
    1 2 3 4
    2 1 8 12
    8 1 2 3
    2 3 4 15
  ")
}
set {
  geom_maxiter 400
  g_convergence GAU_LOOSE
  dynamic_level 1
}
memory 8.166666666666666GB
set_num_threads(2)
psi4_io.set_default_path("/scratch/bdw2292/Psi4-25_27_Index_0-farH_in17")
for _ in range(1):
  try:
    set opt_coordinates both
    optimize('wb97x-d/6-311G')
    break
  except OptimizationConvergenceError:
    break
  else:
    try:
      set opt_coordinates cartesian
      optimize('wb97x-d/6-311G')
      break
    except OptimizationConvergenceError:
      pass
clean()
