molecule { 
0 1
 N   -0.242595    0.317378   -0.704357
 C    0.828328   -0.506551   -0.279309
 C    2.193138   -0.276478   -0.996271
 N    3.385621   -0.547745   -0.160780
 O    0.697890   -1.307850    0.646449
 H    2.267476   -0.897671   -1.905208
 H    2.293225    0.766025   -1.347345
 C   -1.516498    0.244883   -0.013740
 C   -4.015827    0.151702    1.302986
 C   -3.438662   -1.023941    0.805388
 C   -3.347508    1.372702    1.145272
 C   -2.199577   -0.988721    0.151277
 C   -2.107319    1.430097    0.493760
 C   -0.248153    1.017590   -2.012321
 C    4.615995   -0.614412   -0.968865
 C    3.524570    0.441631    0.925650
 H   -3.954615   -1.978201    0.924963
 H   -3.792443    2.292524    1.529185
 H   -1.758776   -1.913804   -0.223968
 H   -1.600559    2.390901    0.381194
 H   -1.269204    1.208552   -2.346164
 H    0.265805    1.975339   -1.924886
 H    0.235820    0.416482   -2.782539
 H    4.520738   -1.417435   -1.718166
 H    4.813287    0.344777   -1.477197
 H    3.652397    1.463607    0.530484
 H    2.629552    0.400732    1.567117
 H   -4.981405    0.116105    1.811171
 H    5.469469   -0.868584   -0.319335
 H    4.389908    0.178839    1.555426
}
set optking { 
  frozen_dihedral = ("
    1 2 3 4
    2 1 8 12
    8 1 2 3
    2 3 4 15
  ")
}
set {
  geom_maxiter 400
  g_convergence GAU_LOOSE
  dynamic_level 1
}
memory 8.166666666666666GB
set_num_threads(2)
psi4_io.set_default_path("/scratch/bdw2292/Psi4-25_27_Index_0-farH_in17")
for _ in range(1):
  try:
    set opt_coordinates both
    optimize('wb97x-d/6-311G')
    break
  except OptimizationConvergenceError:
    break
  else:
    try:
      set opt_coordinates cartesian
      optimize('wb97x-d/6-311G')
      break
    except OptimizationConvergenceError:
      pass
clean()
