molecule { 
0 1
 N    2.069859   -0.418974   -0.068528
 C    0.743033   -0.157726   -0.024311
 C   -0.179295   -1.271397   -0.290022
 C   -1.298788   -1.097414   -1.100275
 C    0.309056    1.092565    0.342710
 C    0.085173   -2.532257    0.241253
 H    2.656728    0.412328    0.012260
 C   -1.010868    1.594956    0.618182
 N    0.430640    3.295301    0.802049
 C    1.222559    2.222739    0.496438
 C   -0.896469    2.908860    0.892824
 C   -0.769769   -3.589216   -0.009467
 C   -2.146106   -2.159797   -1.355190
 C   -1.887088   -3.405750   -0.807529
 H    0.951350   -2.669423    0.871998
 H   -1.488776   -0.130185   -1.540376
 H    0.779672    4.220930    0.985336
 O    2.445027    2.256943    0.358764
 H   -0.563892   -4.559615    0.418041
 H   -3.010426   -2.017020   -1.987114
 H   -2.552644   -4.232938   -1.005098
 H   -1.910841    1.013213    0.627634
 H   -1.652248    3.625511    1.151251
 H    2.398499   -1.164224   -0.659987
}
memory 20GB
set_num_threads(5)
psi4_io.set_default_path("/scratch/liuchw/Psi4-7_11_Index_0-farH_in17")
set freeze_core True
E, wfn = energy('wb97x-d/6-311+G*',return_wfn=True)
oeprop(wfn,"WIBERG_LOWDIN_INDICES")
clean()
