molecule { 
0 1
 N    1.769367   -0.022686   -1.107125
 C    0.600103    0.008948   -0.430065
 C   -0.270301   -1.175033   -0.530874
 C   -0.537284   -1.747033   -1.773563
 C    0.313557    1.086628    0.374438
 C   -0.781293   -1.785965    0.612244
 H    2.278640    0.863015   -1.094527
 C   -0.752728    1.330120    1.310206
 N    0.585973    3.121164    1.310688
 C    1.170114    2.271136    0.413048
 C   -0.557820    2.551953    1.843331
 C   -1.563339   -2.921276    0.509588
 C   -1.327322   -2.877057   -1.873362
 C   -1.843752   -3.467170   -0.732157
 H   -0.535369   -1.383548    1.582291
 H   -0.158652   -1.282812   -2.673980
 H    0.954718    4.024841    1.554412
 O    2.199772    2.508155   -0.219085
 H   -1.950474   -3.387437    1.403728
 H   -1.537556   -3.300803   -2.844448
 H   -2.457008   -4.352484   -0.810191
 H   -1.575736    0.674754    1.511996
 H   -1.136174    3.081713    2.575702
 H    1.836955   -0.581709   -1.941454
}
memory 20GB
set_num_threads(5)
psi4_io.set_default_path("/scratch/liuchw/Psi4-7_11_Index_0-farH_in17")
set freeze_core True
E, wfn = energy('wb97x-d/6-311+G*',return_wfn=True)
oeprop(wfn,"WIBERG_LOWDIN_INDICES")
clean()
