molecule { 
0 1
 N    2.051604   -0.326189   -0.449053
 C    0.745633   -0.112371   -0.174724
 C   -0.191112   -1.242168   -0.367119
 C   -1.076403   -1.245509   -1.438623
 C    0.333025    1.085218    0.341121
 C   -0.150725   -2.334303    0.491931
 H    2.624476    0.517161   -0.405428
 C   -0.951612    1.490768    0.849132
 N    0.437718    3.239730    0.982813
 C    1.215881    2.242872    0.461535
 C   -0.848247    2.779960    1.222695
 C   -1.005705   -3.403935    0.295670
 C   -1.927293   -2.319009   -1.633549
 C   -1.894131   -3.398443   -0.766790
 H    0.545450   -2.332920    1.317475
 H   -1.101057   -0.399348   -2.109811
 H    0.770273    4.165711    1.192705
 O    2.400776    2.348046    0.149539
 H   -0.976252   -4.245781    0.971573
 H   -2.615387   -2.314353   -2.466023
 H   -2.559099   -4.235428   -0.920102
 H   -1.818741    0.863727    0.910519
 H   -1.583600    3.433709    1.650994
 H    2.298914   -1.019732   -1.135639
}
memory 20GB
set_num_threads(5)
psi4_io.set_default_path("/scratch/liuchw/Psi4-7_11_Index_0-farH_in17")
set freeze_core True
E, wfn = energy('wb97x-d/6-311+G*',return_wfn=True)
oeprop(wfn,"WIBERG_LOWDIN_INDICES")
clean()
