molecule { 
0 1
 N    1.293413   -0.520025    1.719552
 C    0.479628   -0.212072    0.685255
 C   -0.312293   -1.307359    0.081296
 C   -1.400667   -1.836421    0.765179
 C    0.340140    1.085814    0.276727
 C    0.002958   -1.789427   -1.183598
 H    1.892466    0.251213    2.015712
 C   -0.562203    1.675530   -0.677534
 N    0.749324    3.294663    0.137876
 C    1.165451    2.172103    0.799535
 C   -0.288481    2.992660   -0.730436
 C   -0.748566   -2.805602   -1.746756
 C   -2.153148   -2.848110    0.195935
 C   -1.826283   -3.336553   -1.058083
 H    0.839786   -1.366449   -1.720118
 H   -1.650669   -1.450111    1.742126
 H    1.126769    4.214157    0.293776
 O    2.066853    2.126629    1.634922
 H   -0.494274   -3.181565   -2.726827
 H   -2.998169   -3.254895    0.731609
 H   -2.413086   -4.128274   -1.499803
 H   -1.309941    1.144875   -1.232742
 H   -0.745465    3.767849   -1.315087
 H    1.670839   -1.451221    1.782329
}
memory 20GB
set_num_threads(5)
psi4_io.set_default_path("/scratch/liuchw/Psi4-7_11_Index_0-farH_in17")
set freeze_core True
E, wfn = energy('wb97x-d/6-311+G*',return_wfn=True)
oeprop(wfn,"WIBERG_LOWDIN_INDICES")
clean()
