molecule { 
0 1
 N    1.838311   -0.490567    0.749371
 C    0.598610   -0.193445    0.298254
 C   -0.259762   -1.335349   -0.074316
 C   -1.645168   -1.231412   -0.214202
 C    0.235866    1.147298    0.310723
 C    0.318222   -2.562641   -0.425016
 H    2.439607    0.328002    0.888252
 C   -0.986406    1.869123    0.066449
 N    0.586372    3.379284    0.537485
 C    1.230723    2.179509    0.626601
 C   -0.738457    3.187017    0.206822
 C   -0.446884   -3.627111   -0.859665
 C   -2.412286   -2.297083   -0.645159
 C   -1.819852   -3.501954   -0.978892
 H    1.387589   -2.708753   -0.383028
 H   -2.147952   -0.333224    0.090062
 H    1.027735    4.266381    0.710808
 O    2.427633    2.066208    0.908481
 H    0.035988   -4.558456   -1.117689
 H   -3.483265   -2.181302   -0.725140
 H   -2.417695   -4.331381   -1.325378
 H   -1.937137    1.477808   -0.227572
 H   -1.404753    4.021580    0.103386
 H    2.297348   -1.332122    0.450204
}
memory 20GB
set_num_threads(5)
psi4_io.set_default_path("/scratch/liuchw/Psi4-7_11_Index_0-farH_in17")
set freeze_core True
E, wfn = energy('wb97x-d/6-311+G*',return_wfn=True)
oeprop(wfn,"WIBERG_LOWDIN_INDICES")
clean()
