molecule { 
0 1
 N    1.993056   -0.452667    0.281397
 C    0.682361   -0.173835    0.087073
 C   -0.185237   -1.292028   -0.309242
 C   -1.477192   -1.103868   -0.803107
 C    0.259918    1.114980    0.362937
 C    0.232594   -2.605679   -0.066885
 H    2.574997    0.372596    0.445535
 C   -1.035077    1.739837    0.426971
 N    0.498476    3.345532    0.661366
 C    1.229209    2.195753    0.559581
 C   -0.852828    3.061937    0.617908
 C   -0.590880   -3.679833   -0.342466
 C   -2.298456   -2.180292   -1.080000
 C   -1.863556   -3.473934   -0.847526
 H    1.200195   -2.794619    0.373419
 H   -1.811965   -0.112199   -1.053840
 H    0.901331    4.252868    0.824263
 O    2.461061    2.149374    0.593646
 H   -0.241848   -4.683556   -0.148373
 H   -3.288245   -2.006666   -1.476244
 H   -2.509597   -4.313366   -1.056715
 H   -1.985597    1.247422    0.419831
 H   -1.578312    3.844880    0.726840
 H    2.409980   -1.215228   -0.225526
}
memory 20GB
set_num_threads(5)
psi4_io.set_default_path("/scratch/liuchw/Psi4-7_11_Index_0-farH_in17")
set freeze_core True
E, wfn = energy('wb97x-d/6-311+G*',return_wfn=True)
oeprop(wfn,"WIBERG_LOWDIN_INDICES")
clean()
