molecule { 
0 1
 C    1.811880   -0.237315    1.198853
 N    0.953833   -0.083075    0.040805
 C   -0.258192   -0.881341    0.115079
 C   -1.611413   -0.259428    0.349544
 C    0.768435    1.320989   -0.272689
 H   -0.376961   -1.396005   -0.855107
 H   -0.134878   -1.672217    0.860201
 O   -1.905169    0.889167    0.519207
 H    0.287600    1.892343    0.526909
 H    0.180498    1.410356   -1.184724
 H    1.987885   -1.296174    1.385812
 H    1.398431    0.221086    2.110251
 H    2.771475    0.230941    0.982351
 H   -2.400806   -1.043289    0.308227
 H    1.752505    1.750726   -0.465377
}
memory 20GB
set_num_threads(5)
psi4_io.set_default_path("/scratch/liuchw/Psi4-4_27_Index_0-farH_in17")
set freeze_core True
E, wfn = energy('wb97x-d/6-311+G*',return_wfn=True)
oeprop(wfn,"WIBERG_LOWDIN_INDICES")
clean()
