molecule { 
0 1
 C    1.643538   -0.409473   -0.140770
 N    0.591888    0.573468    0.033992
 C   -0.745720    0.054737    0.288985
 C   -1.101424   -1.389831    0.072816
 C    0.965209    1.542871    1.043647
 H   -1.037574    0.237850    1.337940
 H   -1.456675    0.627097   -0.325540
 O   -0.441474   -2.305793   -0.324969
 H    1.104617    1.092321    2.039406
 H    0.196871    2.312675    1.111673
 H    1.376483   -1.095936   -0.937738
 H    1.851721   -0.986346    0.771650
 H    2.549917    0.119856   -0.434210
 H   -2.171505   -1.543198    0.336517
 H    1.899247    2.016470    0.745935
}
memory 20GB
set_num_threads(5)
psi4_io.set_default_path("/scratch/liuchw/Psi4-4_27_Index_0-farH_in17")
set freeze_core True
E, wfn = energy('wb97x-d/6-311+G*',return_wfn=True)
oeprop(wfn,"WIBERG_LOWDIN_INDICES")
clean()
