molecule { 
0 1
 C    1.988427   -0.427055    0.755796
 N    0.794633    0.043895    0.086448
 C   -0.381788   -0.663433    0.538594
 C   -1.594945   -0.482383   -0.332722
 C    0.648208    1.478530    0.221962
 H   -0.168134   -1.738271    0.548091
 H   -0.682504   -0.389281    1.571620
 O   -1.688069    0.181436   -1.322935
 H    0.525619    1.791103    1.272345
 H   -0.215866    1.806874   -0.349754
 H    2.098047   -1.498886    0.594593
 H    1.976380   -0.232582    1.840636
 H    2.852957    0.073603    0.323402
 H   -2.462305   -1.059205    0.055219
 H    1.534460    1.962424   -0.183956
}
memory 20GB
set_num_threads(5)
psi4_io.set_default_path("/scratch/liuchw/Psi4-4_27_Index_0-farH_in17")
set freeze_core True
E, wfn = energy('wb97x-d/6-311+G*',return_wfn=True)
oeprop(wfn,"WIBERG_LOWDIN_INDICES")
clean()
