molecule { 
0 1
 C    1.650845   -0.170274    1.298029
 N    0.992255   -0.112662    0.006706
 C   -0.234538   -0.879507   -0.029630
 C   -1.477005   -0.321026    0.623741
 C    0.834728    1.258932   -0.443000
 H   -0.503043   -1.042261   -1.083500
 H   -0.046600   -1.868484    0.401059
 O   -1.592326    0.715770    1.213255
 H    0.211285    1.869250    0.217910
 H    0.402088    1.254632   -1.443544
 H    1.801148   -1.212606    1.578315
 H    1.085719    0.333088    2.093914
 H    2.626868    0.305105    1.210783
 H   -2.350905   -0.993810    0.479793
 H    1.824602    1.710617   -0.504488
}
memory 20GB
set_num_threads(5)
psi4_io.set_default_path("/scratch/liuchw/Psi4-4_27_Index_0-farH_in17")
set freeze_core True
E, wfn = energy('wb97x-d/6-311+G*',return_wfn=True)
oeprop(wfn,"WIBERG_LOWDIN_INDICES")
clean()
