molecule { 
0 1
 C    1.656394   -0.474751    0.054338
 N    0.587634    0.508278    0.031143
 C   -0.697623   -0.028323    0.431367
 C   -1.160295   -1.320433   -0.179086
 C    0.931150    1.631008    0.880726
 H   -0.746715   -0.202020    1.528549
 H   -1.467708    0.718745    0.203178
 O   -0.619825   -2.007868   -0.996104
 H    1.040700    1.344478    1.939045
 H    0.158909    2.396440    0.804521
 H    1.418319   -1.289392   -0.622419
 H    1.832000   -0.882318    1.062199
 H    2.570122    0.004105   -0.293294
 H   -2.149344   -1.608962    0.237984
 H    1.871398    2.057784    0.537187
}
memory 20GB
set_num_threads(5)
psi4_io.set_default_path("/scratch/liuchw/Psi4-4_27_Index_0-farH_in17")
set freeze_core True
E, wfn = energy('wb97x-d/6-311+G*',return_wfn=True)
oeprop(wfn,"WIBERG_LOWDIN_INDICES")
clean()
