molecule { 
1 1
 H    1.448679    1.161610    0.267525
 C    1.094074    0.638535   -0.619272
 N   -0.097475   -0.162413   -0.282636
 H   -0.367186   -0.673960   -1.131794
 H    1.890042   -0.002639   -0.992940
 H    0.853215    1.373746   -1.385144
 C   -1.238860    0.690975    0.091712
 C    0.210011   -1.154596    0.762447
 H   -0.989178    1.270159    0.979684
 H   -1.481078    1.377877   -0.716884
 H    1.060847   -1.765533    0.467286
 H    0.455692   -0.642361    1.691733
 H   -2.114004    0.080760    0.307144
 H   -0.646183   -1.803388    0.937146
}
memory 20GB
set_num_threads(5)
psi4_io.set_default_path("/scratch/liuchw/Psi4-32_40_Index_0-farH_in17")
set freeze_core True
E, wfn = energy('wb97x-d/6-311+G*',return_wfn=True)
oeprop(wfn,"WIBERG_LOWDIN_INDICES")
clean()
