molecule { 
1 1
 H    0.884707    1.238854   -1.386878
 C    1.163945    0.556334   -0.588761
 N    0.011480   -0.280397   -0.178020
 H    0.043350   -1.137344   -0.742345
 H    1.535309    1.123842    0.262514
 H    1.981435   -0.071225   -0.940211
 C   -1.277966    0.373934   -0.464980
 C    0.118289   -0.685538    1.234684
 H   -1.350508    1.302863    0.099506
 H   -1.361570    0.600702   -1.525875
 H    1.076817   -1.168200    1.416875
 H    0.035564    0.190880    1.875779
 H   -2.104298   -0.274085   -0.178479
 H   -0.677957   -1.381848    1.492199
}
memory 20GB
set_num_threads(5)
psi4_io.set_default_path("/scratch/liuchw/Psi4-32_40_Index_0-farH_in17")
set freeze_core True
E, wfn = energy('wb97x-d/6-311+G*',return_wfn=True)
oeprop(wfn,"WIBERG_LOWDIN_INDICES")
clean()
