molecule { 
0 1
C 0.90469650667 -0.764289532862 -0.559500733024
C -0.15933305097 -0.073349886707 0.02865124927
C -1.426221755088 -0.815005229243 0.238240417331
O -2.402403558872 -0.042805048348 0.787338237891
C -0.014594442956 1.267322375152 0.401411395906
O -1.605865221775 -1.989620039489 -0.041221698505
C 2.114369559342 -0.111252918681 -0.775416757268
C 2.265251536623 1.226513447508 -0.405788808236
H 0.765224025961 -1.804743006917 -0.837818428099
C 1.20074318409 1.911604690894 0.181621901696
H -0.845945376267 1.794908344623 0.857213390042
H 1.318085363841 2.952864579483 0.469986706483
H -3.176097903881 -0.636739948295 0.876993733358
H 2.942553728251 -0.645789163366 -1.233019535729
H 3.211271858934 1.734514900456 -0.575149213155
no_reorient
}
memory 20GB
set_num_threads(5)
psi4_io.set_default_path("/scratch/liuchw/Psi4-13_34_Index_0-farH_in17")
set freeze_core True
set PROPERTIES_ORIGIN ["COM"]
set cubeprop_tasks ['esp']
set basis 6-311G** 
E, wfn = properties('mp2',properties=['dipole'],return_wfn=True)
cubeprop(wfn)
fchk(wfn, "13_34_Index_0-dma.fchk")
clean()
