molecule { 
0 1
C         -6.08150        0.53520       -0.22350
C         -7.16190        1.21630        0.37150
C         -8.42780        0.45910        0.58570
O         -9.38670        1.26690        1.10250
C         -7.02720        2.56920        0.75100
O         -8.55770       -0.72530        0.32190
C         -4.88910        1.21140       -0.43690
N         -3.52250        3.04850       -0.30400
C         -3.56930        0.84960       -1.00940
C         -2.71040        2.09760       -0.89730
C         -4.78720        2.54830       -0.03700
H         -6.20520       -0.50650       -0.49970
C         -5.82480        3.24840        0.54820
H         -7.85720        3.10110        1.21180
C        -10.63610        0.61180        1.32950
H         -3.20520        3.98790       -0.12020
C         -3.13200       -0.30890       -1.55600
O         -1.56570        2.29350       -1.25750
H         -5.71760        4.28610        0.84440
H        -10.51740       -0.19870        2.05550
H        -11.33340        1.34640        1.74150
H        -11.04720        0.23360        0.38820
H         -3.76070       -1.12580       -1.60550
H         -2.16980       -0.37530       -1.92320
}
memory 208GB
set_num_threads(51)
psi4_io.set_default_path("/scratch/liuchw/Psi4-farH_in17")
set maxiter 500
set freeze_core True
set PROPERTIES_ORIGIN ["COM"]
set cubeprop_tasks ['esp']
set basis MINIX 
E, wfn = properties('hf',properties=['dipole','WIBERG_LOWDIN_INDICES','MULLIKEN_CHARGES'],return_wfn=True)
cubeprop(wfn)
fchk(wfn, "farH_in17-esp_frag.fchk")
clean()
