molecule { 
0 1
 C    0.914351   -0.759006   -0.559417
 C   -0.153368   -0.080486    0.025386
 C   -1.420605   -0.812100    0.236055
 O   -2.389293   -0.060227    0.785652
 C   -0.009426    1.254711    0.394608
 O   -1.601016   -1.970652   -0.048201
 C    2.113617   -0.107574   -0.772206
 C    2.253850    1.221508   -0.403233
 H    0.779197   -1.793266   -0.837581
 C    1.194079    1.899557    0.178786
 H   -0.839680    1.773828    0.847226
 H    1.308125    2.934728    0.464655
 H   -3.190621   -0.594730    0.897624
 H    2.940717   -0.632904   -1.225901
 H    3.191809    1.730745   -0.569913
}
memory 20GB
set_num_threads(5)
psi4_io.set_default_path("/scratch/liuchw/Psi4-13_34_Index_0-farH_in17")
set freeze_core True
E, wfn = energy('wb97x-d/6-311+G*',return_wfn=True)
oeprop(wfn,"WIBERG_LOWDIN_INDICES")
clean()
