molecule { 
0 1
 C    0.605058   -0.495089   -0.835391
 C   -0.210752    0.081017    0.135293
 C   -1.539192   -0.478274    0.464988
 O   -1.847168   -1.580133   -0.239878
 C    0.219705    1.215129    0.821399
 O   -2.296175   -0.015422    1.282365
 C    1.839311    0.062395   -1.112227
 C    2.264519    1.190084   -0.427343
 H    0.265494   -1.372361   -1.363358
 C    1.454520    1.766041    0.539280
 H   -0.429884    1.644475    1.569079
 H    1.788432    2.644488    1.071077
 H   -2.725759   -1.896993    0.020776
 H    2.473523   -0.382483   -1.864709
 H    3.230102    1.621261   -0.647806
}
memory 20GB
set_num_threads(5)
psi4_io.set_default_path("/scratch/liuchw/Psi4-13_34_Index_0-farH_in17")
set freeze_core True
E, wfn = energy('wb97x-d/6-311+G*',return_wfn=True)
oeprop(wfn,"WIBERG_LOWDIN_INDICES")
clean()
