molecule { 
0 1
 C    0.897503   -0.762282   -0.492514
 C   -0.207024   -0.014576   -0.100211
 C   -1.521709   -0.690772    0.064078
 O   -1.999703   -0.555071    1.309489
 C   -0.065078    1.336677    0.192939
 O   -2.091398   -1.325388   -0.783854
 C    2.133349   -0.152582   -0.611269
 C    2.270256    1.199026   -0.340237
 H    0.777132   -1.813066   -0.709191
 C    1.171465    1.942229    0.058805
 H   -0.923400    1.908426    0.512201
 H    1.279710    2.995062    0.273525
 H   -2.856438   -1.003683    1.392557
 H    2.991477   -0.733405   -0.915080
 H    3.235592    1.673538   -0.437697
}
memory 20GB
set_num_threads(5)
psi4_io.set_default_path("/scratch/liuchw/Psi4-13_34_Index_0-farH_in17")
set freeze_core True
E, wfn = energy('wb97x-d/6-311+G*',return_wfn=True)
oeprop(wfn,"WIBERG_LOWDIN_INDICES")
clean()
