molecule { 
0 1
 C    0.912673   -0.763153   -0.537876
 C   -0.180917   -0.052444   -0.050066
 C   -1.465787   -0.763905    0.133216
 O   -2.216478   -0.242329    1.116971
 C   -0.043229    1.290179    0.289754
 O   -1.814876   -1.731770   -0.494561
 C    2.131370   -0.130764   -0.693862
 C    2.263358    1.209742   -0.366809
 H    0.786567   -1.804745   -0.791544
 C    1.177004    1.918130    0.121903
 H   -0.893655    1.832165    0.673458
 H    1.283801    2.962219    0.376271
 H   -3.044625   -0.741018    1.197706
 H    2.980734   -0.681732   -1.069252
 H    3.215794    1.703560   -0.491768
}
memory 20GB
set_num_threads(5)
psi4_io.set_default_path("/scratch/liuchw/Psi4-13_34_Index_0-farH_in17")
set freeze_core True
E, wfn = energy('wb97x-d/6-311+G*',return_wfn=True)
oeprop(wfn,"WIBERG_LOWDIN_INDICES")
clean()
