molecule { 
0 1
 C    0.879053   -0.757362   -0.395085
 C   -0.220481    0.026500   -0.070573
 C   -1.569251   -0.600020    0.060981
 O   -1.812730   -0.991158    1.318309
 C   -0.069765    1.394250    0.117107
 O   -2.359101   -0.749318   -0.831549
 C    2.125530   -0.171186   -0.529435
 C    2.276968    1.192390   -0.341897
 H    0.756491   -1.819959   -0.543024
 C    1.179828    1.973258   -0.019455
 H   -0.928027    2.000264    0.366426
 H    1.295862    3.036877    0.126329
 H   -2.693135   -1.395957    1.385511
 H    2.979796   -0.781570   -0.781739
 H    3.250698    1.647126   -0.448368
}
memory 20GB
set_num_threads(5)
psi4_io.set_default_path("/scratch/liuchw/Psi4-13_34_Index_0-farH_in17")
set freeze_core True
E, wfn = energy('wb97x-d/6-311+G*',return_wfn=True)
oeprop(wfn,"WIBERG_LOWDIN_INDICES")
clean()
