molecule { 
0 1
 C    2.359600    1.218100    0.486500
 C    1.437300    0.255700    0.145600
 N    0.040400    0.504700    0.098800
 H   -0.253600    1.470200    0.343800
 C   -0.928600   -0.474400   -0.250800
 C    1.914300   -0.995400   -0.159400
 C    3.726200    0.938600    0.522400
 C    3.274400   -1.286400   -0.127300
 C    4.180500   -0.308900    0.216500
 H    2.002200    2.216200    0.731800
 H    1.231200   -1.799100   -0.436900
 H    4.440600    1.699900    0.790800
 H    3.644900   -2.279100   -0.369900
 N    5.569000   -0.661200    0.234100
 C   -2.329200   -0.022000   -0.265200
 C   -2.785700    1.253900   -0.206400
 C   -3.290500   -1.038400   -0.346000
 C   -4.148200    1.587200   -0.222700
 C   -4.633800   -0.740400   -0.363800
 C   -5.068900    0.566900   -0.302600
 H   -2.072200    2.056100   -0.147400
 H   -2.988500   -2.074400   -0.395700
 H   -4.460300    2.620900   -0.173400
 H   -5.369100   -1.549200   -0.427300
 H   -6.128600    0.750300   -0.319400
 H   -0.664400   -0.954200   -1.243700
 H   -0.901900   -1.361300    0.453800
 H    6.318500    0.041700    0.055800
 H    5.884600   -1.636400    0.426400
}
set {
  geom_maxiter 400
  g_convergence GAU
  dynamic_level 1
}
set optking { 
  frozen_dihedral = ("
    2 3 5 15
, 5 3 2 1
, 3 5 15 16
, 28 14 9 7
  ")
}
memory 8.333333333333334GB
set_num_threads(1)
psi4_io.set_default_path("/scratch/bdw2292/Psi4-16_1_Index_0_GrowFragment_2-farH_in17")
for _ in range(1):
  try:
    set opt_coordinates both
    optimize('mp2/6-31G*')
    break
  except OptimizationConvergenceError:
    break
  else:
    try:
      set opt_coordinates cartesian
      optimize('mp2/6-31G*')
      break
    except OptimizationConvergenceError:
      pass
clean()
