molecule { 
0 1
 C   -0.622173   -0.347573    0.201938
 N    0.542458   -1.098289    0.120795
 C    1.805504   -0.760811   -0.421259
 C    2.775694   -0.134651    0.398105
 H    0.528509   -1.945259    0.721685
 C    2.135407   -1.097688   -1.756223
 C   -1.646747   -0.787492    1.053171
 N   -2.706143   -2.030383    2.640552
 C   -3.006157   -0.318802    1.204030
 C   -1.502789   -1.926798    1.987092
 C   -3.604226   -1.072285    2.166630
 C   -0.721260    0.946654   -0.536232
 C   -1.156618    2.122651    0.130933
 C   -0.492474    1.009318   -1.935872
 C   -1.308584    3.326419   -0.569843
 C   -0.641279    2.216528   -2.631105
 C   -1.045750    3.383335   -1.952999
 C    4.034851    0.188268   -0.125941
 C    3.397096   -0.770139   -2.271703
 C    4.354214   -0.120856   -1.464496
 H    2.540612    0.102621    1.437829
 H    1.408729   -1.615682   -2.385245
 H   -2.876379   -2.728284    3.350009
 O   -0.505151   -2.671352    2.163498
 H   -1.364481    2.089126    1.202101
 H   -0.208070    0.108552   -2.478995
 H   -1.632234    4.223994   -0.039961
 H   -0.447689    2.249826   -3.704775
 H   -1.159273    4.323126   -2.496506
 H    4.769569    0.682143    0.512263
 H    3.635525   -1.024490   -3.305938
 H   -3.475078    0.488224    0.658072
 H   -4.606907   -1.020604    2.567419
 H    5.334448    0.135996   -1.870142
}
set optking { 
  frozen_dihedral = ("
    1 2 3 4
    2 1 12 13
    7 1 2 3
  ")
}
set {
  geom_maxiter 400
  g_convergence GAU_LOOSE
  dynamic_level 1
}
memory 8.166666666666666GB
set_num_threads(2)
psi4_io.set_default_path("/scratch/bdw2292/Psi4-1_16_Index_0-farH_in17")
for _ in range(1):
  try:
    set opt_coordinates both
    optimize('wb97x-d/6-311G')
    break
  except OptimizationConvergenceError:
    break
  else:
    try:
      set opt_coordinates cartesian
      optimize('wb97x-d/6-311G')
      break
    except OptimizationConvergenceError:
      pass
clean()
