molecule { 
0 1
 C   -0.517572   -0.072480    0.277208
 N    0.549075   -0.953268    0.175583
 C    1.844013   -0.855766   -0.393195
 C    2.465729   -2.019715   -0.913093
 H    0.464724   -1.730256    0.848826
 C    2.610976    0.332805   -0.268041
 C   -1.472839   -0.466492    1.206093
 N   -2.520290   -0.571895    3.202840
 C   -2.614273   -1.338157    1.082094
 C   -1.434131    0.016469    2.596798
 C   -3.222021   -1.375627    2.299027
 C   -0.817995    1.064057   -0.674549
 C   -2.066955    1.750745   -0.566776
 C    0.018259    1.419888   -1.774283
 C   -2.416739    2.776727   -1.454363
 C   -0.334499    2.453227   -2.654250
 C   -1.548994    3.143374   -2.497253
 C    3.787135   -1.967433   -1.378369
 C    3.929546    0.376269   -0.740830
 C    4.526100   -0.769104   -1.305694
 H    1.911461   -2.959552   -0.964880
 H    2.176403    1.220142    0.198166
 H   -2.736274   -0.410308    4.175740
 O   -0.616579    0.780327    3.150685
 H   -2.772212    1.494186    0.225050
 H    0.944075    0.888989   -1.972263
 H   -3.369702    3.294650   -1.331713
 H    0.339336    2.717945   -3.471357
 H   -1.819126    3.949318   -3.181802
 H    4.241458   -2.866334   -1.798803
 H    4.493096    1.307720   -0.664387
 H   -2.935250   -1.863358    0.193620
 H   -4.105097   -1.911486    2.618175
 H    5.552321   -0.730264   -1.675112
}
set optking { 
  frozen_dihedral = ("
    2 1 12 13
    7 1 2 3
    1 2 3 4
  ")
}
set {
  geom_maxiter 400
  g_convergence GAU_LOOSE
  dynamic_level 1
}
memory 8.166666666666666GB
set_num_threads(2)
psi4_io.set_default_path("/scratch/bdw2292/Psi4-1_16_Index_0-farH_in17")
for _ in range(1):
  try:
    set opt_coordinates both
    optimize('wb97x-d/6-311G')
    break
  except OptimizationConvergenceError:
    break
  else:
    try:
      set opt_coordinates cartesian
      optimize('wb97x-d/6-311G')
      break
    except OptimizationConvergenceError:
      pass
clean()
