molecule { 
0 1
 C   -0.606035   -0.308247    0.245064
 N    0.508033   -1.084054    0.155947
 C    1.789340   -0.687408   -0.346461
 C    2.719967   -0.124586    0.526582
 H    0.452408   -1.957364    0.687359
 C    2.158581   -0.980674   -1.658603
 C   -1.661441   -0.743740    1.021930
 N   -2.807216   -2.065173    2.451757
 C   -2.993845   -0.188415    1.221636
 C   -1.589784   -1.965362    1.812672
 C   -3.646712   -0.996941    2.086846
 C   -0.663748    0.991365   -0.473828
 C   -1.055305    2.142126    0.221639
 C   -0.407041    1.083437   -1.846116
 C   -1.154076    3.365458   -0.434947
 C   -0.512484    2.306138   -2.502351
 C   -0.880605    3.450830   -1.798399
 C    3.996518    0.197662    0.071676
 C    3.435198   -0.659446   -2.112095
 C    4.353827   -0.063584   -1.249557
 H    2.430752    0.062646    1.551480
 H    1.448344   -1.472457   -2.308434
 H   -3.039026   -2.820263    3.067106
 O   -0.632711   -2.787627    1.921070
 H   -1.260945    2.074528    1.280856
 H   -0.146188    0.197552   -2.404166
 H   -1.443597    4.249024    0.117466
 H   -0.312701    2.363283   -3.563638
 H   -0.958253    4.400728   -2.309871
 H    4.711317    0.644796    0.748855
 H    3.715386   -0.884054   -3.132186
 H   -3.392877    0.693805    0.753540
 H   -4.645470   -0.926721    2.478490
 H    5.345647    0.184534   -1.602070
}
memory 8.166666666666666GB
set_num_threads(2)
psi4_io.set_default_path("/scratch/bdw2292/Psi4-1_16_Index_0-farH_in17")
set freeze_core True
E, wfn = energy('wb97x-d/6-311+G*',return_wfn=True)
oeprop(wfn,"WIBERG_LOWDIN_INDICES")
clean()
