molecule { 
0 1
 C   -0.564168   -0.364887    0.227869
 N    0.721752   -0.720043    0.578324
 C    1.977829   -0.169709    0.215365
 C    3.111633   -1.021283    0.168640
 H    0.743705   -1.409311    1.344953
 C    2.149941    1.217413   -0.026579
 C   -1.595542   -0.895677    0.988190
 N   -3.168200   -2.390029    1.615602
 C   -2.269461   -0.391796    2.158618
 C   -2.193402   -2.201279    0.662862
 C   -3.214047   -1.309318    2.502200
 C   -0.851374    0.572674   -0.891508
 C   -0.247034    0.380963   -2.160890
 C   -1.700040    1.692759   -0.698410
 C   -0.487098    1.283698   -3.205125
 C   -1.938391    2.590456   -1.747857
 C   -1.333620    2.393043   -3.005974
 C    4.373918   -0.501056   -0.149239
 C    3.416341    1.726809   -0.345321
 C    4.536677    0.874030   -0.412678
 H    3.003957   -2.089453    0.371428
 H    1.301844    1.900837    0.033527
 H   -3.745458   -3.218177    1.628715
 O   -1.900613   -3.003355   -0.248485
 H    0.407040   -0.478019   -2.323239
 H   -2.167809    1.857310    0.273572
 H   -0.013792    1.126060   -4.175790
 H   -2.592973    3.448639   -1.586079
 H   -1.519264    3.094843   -3.821138
 H    5.233168   -1.172784   -0.191327
 H    3.528049    2.794834   -0.540070
 H   -2.067920    0.536803    2.673621
 H   -3.922796   -1.304615    3.318734
 H    5.520299    1.274957   -0.663624
}
set optking { 
  frozen_dihedral = ("
    2 1 12 13
    7 1 2 3
    1 2 3 4
  ")
}
set {
  geom_maxiter 400
  g_convergence GAU_LOOSE
  dynamic_level 1
}
memory 8.166666666666666GB
set_num_threads(2)
psi4_io.set_default_path("/scratch/bdw2292/Psi4-1_16_Index_0-farH_in17")
for _ in range(1):
  try:
    set opt_coordinates both
    optimize('wb97x-d/6-311G')
    break
  except OptimizationConvergenceError:
    break
  else:
    try:
      set opt_coordinates cartesian
      optimize('wb97x-d/6-311G')
      break
    except OptimizationConvergenceError:
      pass
clean()
