molecule { 
0 1
 C   -0.509156   -0.039972    0.344324
 N    0.768624   -0.561856    0.552397
 C    2.060823   -0.315538    0.006305
 C    2.326623    0.115026   -1.319218
 H    0.803455   -1.115729    1.429183
 C    3.171371   -0.519213    0.877107
 C   -1.499973   -0.316880    1.301512
 N   -2.442701   -1.048123    3.244139
 C   -2.922994   -0.058168    1.276746
 C   -1.234646   -0.990193    2.594419
 C   -3.450874   -0.497707    2.451562
 C   -0.881396    0.639095   -0.926245
 C   -1.500760    1.915542   -0.904024
 C   -0.828699   -0.067937   -2.156241
 C   -1.964149    2.503114   -2.088402
 C   -1.289962    0.524631   -3.338777
 C   -1.852082    1.816747   -3.314495
 C    3.644535    0.315589   -1.756695
 C    4.483546   -0.315543    0.430543
 C    4.732652    0.101069   -0.890097
 H    1.527276    0.307437   -2.026188
 H    3.006096   -0.839718    1.909393
 H   -2.541409   -1.453143    4.163619
 O   -0.144365   -1.437018    3.034402
 H   -1.605321    2.443780    0.045849
 H   -0.426808   -1.083375   -2.173987
 H   -2.414595    3.496781   -2.059828
 H   -1.214425   -0.020365   -4.281326
 H   -2.206007    2.279322   -4.237643
 H    3.821391    0.643189   -2.782897
 H    5.314329   -0.484284    1.117861
 H   -3.481607    0.404591    0.474871
 H   -4.471145   -0.473409    2.807923
 H    5.755515    0.257600   -1.237203
}
set optking { 
  frozen_dihedral = ("
    1 2 3 4
    2 1 12 13
    7 1 2 3
  ")
}
set {
  geom_maxiter 400
  g_convergence GAU_LOOSE
  dynamic_level 1
}
memory 8.166666666666666GB
set_num_threads(2)
psi4_io.set_default_path("/scratch/bdw2292/Psi4-1_16_Index_0-farH_in17")
for _ in range(1):
  try:
    set opt_coordinates both
    optimize('wb97x-d/6-311G')
    break
  except OptimizationConvergenceError:
    break
  else:
    try:
      set opt_coordinates cartesian
      optimize('wb97x-d/6-311G')
      break
    except OptimizationConvergenceError:
      pass
clean()
