molecule { 
0 1
 C   -0.574518   -0.253012    0.219634
 N    0.677733   -0.675357    0.550113
 C    1.988930   -0.337019    0.132605
 C    2.929322   -1.377000    0.218464
 H    0.654209   -1.329197    1.341978
 C    2.410324    0.913205   -0.322109
 C   -1.619599   -0.600129    1.051496
 N   -2.720416   -1.593554    2.756083
 C   -3.030805   -0.252043    0.973830
 C   -1.463885   -1.478824    2.204402
 C   -3.657024   -0.852257    2.010944
 C   -0.865596    0.682456   -0.906849
 C   -0.546721    2.041312   -0.847121
 C   -1.468515    0.174721   -2.061328
 C   -0.838122    2.880814   -1.918141
 C   -1.755013    1.014315   -3.135198
 C   -1.436693    2.368045   -3.067150
 C    4.256581   -1.167097   -0.126848
 C    3.741832    1.110469   -0.686759
 C    4.671628    0.081322   -0.590011
 H    2.601803   -2.350168    0.559662
 H    1.725177    1.736479   -0.393787
 H   -2.910508   -2.140908    3.572687
 O   -0.413053   -2.039966    2.632749
 H   -0.125037    2.452666    0.059783
 H   -1.712871   -0.877474   -2.110815
 H   -0.602473    3.934133   -1.852875
 H   -2.223812    0.611046   -4.022024
 H   -1.658476    3.020748   -3.900233
 H    4.963586   -1.981145   -0.043954
 H    4.048007    2.085540   -1.040677
 H   -3.484609    0.386127    0.236429
 H   -4.690608   -0.824276    2.304989
 H    5.702768    0.247014   -0.868813
}
memory 8.166666666666666GB
set_num_threads(2)
psi4_io.set_default_path("/scratch/bdw2292/Psi4-1_16_Index_0-farH_in17")
set freeze_core True
E, wfn = energy('wb97x-d/6-311+G*',return_wfn=True)
oeprop(wfn,"WIBERG_LOWDIN_INDICES")
clean()
