molecule { 
0 1
 C   -0.571687   -0.293925    0.392194
 N    0.629558   -0.914688    0.558318
 C    1.856409   -0.534854   -0.060439
 C    2.529393   -1.445293   -0.875593
 H    0.652428   -1.597409    1.320586
 C    2.367174    0.751215    0.116326
 C   -1.599113   -0.570068    1.268802
 N   -2.648812   -1.492131    3.045916
 C   -2.987276   -0.128987    1.285559
 C   -1.428585   -1.469408    2.404822
 C   -3.582191   -0.693120    2.361090
 C   -0.736033    0.655659   -0.738238
 C   -1.270170    1.929320   -0.518352
 C   -0.370975    0.281948   -2.036726
 C   -1.420921    2.820618   -1.577606
 C   -0.528788    1.170984   -3.093684
 C   -1.049700    2.444081   -2.866325
 C    3.718887   -1.074468   -1.497358
 C    3.546618    1.124193   -0.520968
 C    4.226552    0.212453   -1.326804
 H    2.113921   -2.433971   -1.015663
 H    1.833735    1.449127    0.746385
 H   -2.823310   -2.039062    3.866518
 O   -0.402600   -2.123552    2.752170
 H   -1.546338    2.223156    0.485116
 H    0.034781   -0.703747   -2.214571
 H   -1.822186    3.808171   -1.395229
 H   -0.243142    0.871589   -4.092588
 H   -1.164526    3.137574   -3.688161
 H    4.241003   -1.784726   -2.123841
 H    3.935316    2.123927   -0.384610
 H   -3.459426    0.515798    0.565771
 H   -4.594841   -0.610837    2.712438
 H    5.144785    0.502404   -1.818542
}
memory 8.166666666666666GB
set_num_threads(2)
psi4_io.set_default_path("/scratch/bdw2292/Psi4-1_16_Index_0-farH_in17")
set freeze_core True
E, wfn = energy('wb97x-d/6-311+G*',return_wfn=True)
oeprop(wfn,"WIBERG_LOWDIN_INDICES")
clean()
