molecule { 
0 1
 C   -0.571476   -0.243975    0.197436
 N    0.610738   -0.980321    0.139617
 C    1.901465   -0.700187   -0.380497
 C    2.987678   -0.695854    0.536369
 H    0.585345   -1.811193    0.761648
 C    2.182777   -0.559421   -1.761380
 C   -1.587516   -0.693165    1.055835
 N   -2.609560   -1.884907    2.706577
 C   -2.972439   -0.289089    1.155983
 C   -1.402897   -1.763055    2.062541
 C   -3.547646   -1.009051    2.157350
 C   -0.764087    0.994729   -0.611973
 C   -1.212788    2.186742    0.018790
 C   -0.729986    0.962297   -2.029743
 C   -1.503197    3.331722   -0.734253
 C   -1.015296    2.110344   -2.780854
 C   -1.392451    3.305765   -2.138183
 C    4.297682   -0.477945    0.089347
 C    3.496857   -0.339268   -2.200231
 C    4.563396   -0.289591   -1.280903
 H    2.801301   -0.852919    1.601774
 H    1.392030   -0.636881   -2.502855
 H   -2.755103   -2.542590    3.458529
 O   -0.374053   -2.446184    2.297380
 H   -1.316254    2.212490    1.105431
 H   -0.507661    0.028687   -2.543975
 H   -1.817137    4.246976   -0.229148
 H   -0.954211    2.073707   -3.870074
 H   -1.609118    4.200825   -2.724052
 H    5.113755   -0.456298    0.813665
 H    3.689907   -0.212443   -3.267013
 H   -3.472359    0.456860    0.553401
 H   -4.558683   -0.985043    2.539216
 H    5.584142   -0.116421   -1.626867
}
set optking { 
  frozen_dihedral = ("
    1 2 3 4
    2 1 12 13
    7 1 2 3
  ")
}
set {
  geom_maxiter 400
  g_convergence GAU_LOOSE
  dynamic_level 1
}
memory 8.166666666666666GB
set_num_threads(2)
psi4_io.set_default_path("/scratch/bdw2292/Psi4-1_16_Index_0-farH_in17")
for _ in range(1):
  try:
    set opt_coordinates both
    optimize('wb97x-d/6-311G')
    break
  except OptimizationConvergenceError:
    break
  else:
    try:
      set opt_coordinates cartesian
      optimize('wb97x-d/6-311G')
      break
    except OptimizationConvergenceError:
      pass
clean()
