molecule { 
0 1
 C   -0.622964   -0.348127    0.021203
 N    0.707057   -0.675959    0.340817
 C    2.041277   -0.357659   -0.054456
 C    2.989966   -1.409150    0.147517
 H    0.719733   -1.371654    1.110307
 C    2.513207    0.829829   -0.669996
 C   -1.595343   -0.752764    0.957785
 N   -2.571606   -1.924101    2.657219
 C   -2.962521   -0.309713    1.135026
 C   -1.380508   -1.798912    1.986646
 C   -3.512541   -1.027096    2.152196
 C   -1.016749    0.802103   -0.844520
 C   -0.431631    2.087227   -0.741512
 C   -1.931599    0.562083   -1.903852
 C   -0.754113    3.099089   -1.654964
 C   -2.257730    1.576511   -2.813326
 C   -1.668015    2.850775   -2.697836
 C    4.337613   -1.251830   -0.199511
 C    3.866362    0.979950   -1.012203
 C    4.790615   -0.053184   -0.776468
 H    2.669698   -2.357540    0.588433
 H    1.857253    1.653996   -0.910122
 H   -2.698753   -2.581830    3.412423
 O   -0.332964   -2.450256    2.230566
 H    0.242086    2.300197    0.089969
 H   -2.376900   -0.429176   -2.011829
 H   -0.297475    4.085143   -1.553070
 H   -2.968526    1.375839   -3.616874
 H   -1.918539    3.639614   -3.409260
 H    5.036092   -2.070108   -0.016204
 H    4.199349    1.913371   -1.470323
 H   -3.473415    0.452799    0.563049
 H   -4.506934   -0.986109    2.574141
 H    5.841678    0.071983   -1.042084
}
set optking { 
  frozen_dihedral = ("
    2 1 12 13
    7 1 2 3
    1 2 3 4
  ")
}
set {
  geom_maxiter 400
  g_convergence GAU_LOOSE
  dynamic_level 1
}
memory 8.166666666666666GB
set_num_threads(2)
psi4_io.set_default_path("/scratch/bdw2292/Psi4-1_16_Index_0-farH_in17")
for _ in range(1):
  try:
    set opt_coordinates both
    optimize('wb97x-d/6-311G')
    break
  except OptimizationConvergenceError:
    break
  else:
    try:
      set opt_coordinates cartesian
      optimize('wb97x-d/6-311G')
      break
    except OptimizationConvergenceError:
      pass
clean()
