molecule { 
0 1
 C   -0.533979   -0.034586    0.401670
 N    0.761127   -0.482759    0.657921
 C    2.037747   -0.218734    0.085657
 C    2.262685    0.663740   -1.004446
 H    0.820615   -0.928061    1.593833
 C    3.151994   -0.929312    0.615549
 C   -1.527240   -0.265894    1.367309
 N   -2.470563   -0.881106    3.348761
 C   -2.957609   -0.059835    1.306849
 C   -1.255745   -0.827580    2.710583
 C   -3.486247   -0.427495    2.505732
 C   -0.889962    0.560859   -0.915175
 C   -1.571406    1.802835   -0.986717
 C   -0.662225   -0.165357   -2.113883
 C   -1.973053    2.321747   -2.224397
 C   -1.064233    0.359910   -3.348730
 C   -1.719045    1.606678   -3.412542
 C    3.548629    0.820987   -1.541958
 C    4.432652   -0.762260    0.072462
 C    4.642714    0.111333   -1.011045
 H    1.453353    1.249679   -1.434376
 H    3.014726   -1.616859    1.454106
 H   -2.568622   -1.219837    4.294756
 O   -0.156030   -1.199295    3.194252
 H   -1.776654    2.357093   -0.068784
 H   -0.170244   -1.138928   -2.068132
 H   -2.484505    3.284973   -2.266300
 H   -0.868769   -0.200877   -4.264309
 H   -2.031201    2.014004   -4.375907
 H    3.695789    1.504380   -2.380286
 H    5.269752   -1.319255    0.496605
 H   -3.520749    0.319899    0.465551
 H   -4.511835   -0.412522    2.847326
 H    5.641293    0.237779   -1.433046
}
set optking { 
  frozen_dihedral = ("
    1 2 3 4
    2 1 12 13
    7 1 2 3
  ")
}
set {
  geom_maxiter 400
  g_convergence GAU_LOOSE
  dynamic_level 1
}
memory 8.166666666666666GB
set_num_threads(2)
psi4_io.set_default_path("/scratch/bdw2292/Psi4-1_16_Index_0-farH_in17")
for _ in range(1):
  try:
    set opt_coordinates both
    optimize('wb97x-d/6-311G')
    break
  except OptimizationConvergenceError:
    break
  else:
    try:
      set opt_coordinates cartesian
      optimize('wb97x-d/6-311G')
      break
    except OptimizationConvergenceError:
      pass
clean()
