molecule { 
0 1
 C   -0.551941   -0.263463    0.236467
 N    0.725001   -0.710032    0.530562
 C    2.010111   -0.230820    0.169869
 C    3.085452   -1.147644    0.050813
 H    0.726426   -1.425901    1.273585
 C    2.271831    1.157767    0.039987
 C   -1.562925   -0.795077    1.028186
 N   -3.074399   -2.309453    1.755458
 C   -2.266195   -0.241502    2.158645
 C   -2.099450   -2.148098    0.798118
 C   -3.173898   -1.171606    2.561858
 C   -0.886080    0.621952   -0.930294
 C   -0.028110    0.746884   -2.060019
 C   -2.061621    1.424613   -0.898488
 C   -0.332340    1.633466   -3.101814
 C   -2.361805    2.305851   -1.945905
 C   -1.499240    2.418610   -3.052323
 C    4.376955   -0.687038   -0.241070
 C    3.566333    1.607383   -0.254177
 C    4.627522    0.691067   -0.400896
 H    2.908612   -2.218360    0.176449
 H    1.467343    1.884761    0.166569
 H   -3.615640   -3.158935    1.824625
 O   -1.758223   -3.004695   -0.043619
 H    0.872574    0.138037   -2.137751
 H   -2.741702    1.364958   -0.047851
 H    0.342378    1.713287   -3.956089
 H   -3.268266    2.911894   -1.898971
 H   -1.733621    3.108540   -3.864922
 H    5.190350   -1.407517   -0.343644
 H    3.746639    2.677787   -0.367143
 H   -2.111727    0.731263    2.604041
 H   -3.890992   -1.137869    3.370288
 H    5.633802    1.045230   -0.631658
}
set optking { 
  frozen_dihedral = ("
    2 1 12 13
    7 1 2 3
    1 2 3 4
  ")
}
set {
  geom_maxiter 400
  g_convergence GAU_LOOSE
  dynamic_level 1
}
memory 8.166666666666666GB
set_num_threads(2)
psi4_io.set_default_path("/scratch/bdw2292/Psi4-1_16_Index_0-farH_in17")
for _ in range(1):
  try:
    set opt_coordinates both
    optimize('wb97x-d/6-311G')
    break
  except OptimizationConvergenceError:
    break
  else:
    try:
      set opt_coordinates cartesian
      optimize('wb97x-d/6-311G')
      break
    except OptimizationConvergenceError:
      pass
clean()
