molecule { 
0 1
 C   -0.567700   -0.170627    0.300417
 N    0.639124   -0.869512    0.292128
 C    1.930906   -0.613884   -0.249304
 C    2.942318   -1.593828   -0.036821
 H    0.635867   -1.626997    1.002027
 C    2.294557    0.591018   -0.908751
 C   -1.570834   -0.571001    1.197996
 N   -2.578143   -1.705945    2.897713
 C   -2.938932   -0.121882    1.335316
 C   -1.385505   -1.624076    2.222384
 C   -3.505439   -0.810584    2.362974
 C   -0.834363    0.899431   -0.699373
 C   -1.301559    2.174681   -0.289482
 C   -0.734141    0.620749   -2.087917
 C   -1.618957    3.153329   -1.240334
 C   -1.048267    1.605207   -3.033557
 C   -1.489446    2.877446   -2.616756
 C    4.244176   -1.395827   -0.516541
 C    3.599630    0.776858   -1.387525
 C    4.582771   -0.213621   -1.201655
 H    2.706797   -2.517322    0.498542
 H    1.579150    1.398345   -1.048944
 H   -2.721160   -2.347486    3.663871
 O   -0.364623   -2.322691    2.449219
 H   -1.407211    2.392454    0.775123
 H   -0.409271   -0.368417   -2.416476
 H   -1.966861    4.134214   -0.911864
 H   -0.950392    1.383397   -4.097566
 H   -1.732602    3.642897   -3.355909
 H    4.997333   -2.169024   -0.354786
 H    3.850142    1.703927   -1.906361
 H   -3.436416    0.628777    0.736843
 H   -4.503684   -0.750803    2.773289
 H    5.595893   -0.063860   -1.579030
}
set optking { 
  frozen_dihedral = ("
    1 2 3 4
    2 1 12 13
    7 1 2 3
  ")
}
set {
  geom_maxiter 400
  g_convergence GAU_LOOSE
  dynamic_level 1
}
memory 8.166666666666666GB
set_num_threads(2)
psi4_io.set_default_path("/scratch/bdw2292/Psi4-1_16_Index_0-farH_in17")
for _ in range(1):
  try:
    set opt_coordinates both
    optimize('wb97x-d/6-311G')
    break
  except OptimizationConvergenceError:
    break
  else:
    try:
      set opt_coordinates cartesian
      optimize('wb97x-d/6-311G')
      break
    except OptimizationConvergenceError:
      pass
clean()
