molecule { 
0 1
 C   -0.581881   -0.212187    0.092216
 N    0.596999   -0.272863    0.780679
 C    1.833325    0.416806    0.737013
 C    2.960062   -0.307205    1.152942
 H    0.514892   -0.889436    1.603070
 C    1.950500    1.803917    0.602189
 C   -1.660284   -0.882650    0.658895
 N   -2.809058   -2.141310    2.149505
 C   -3.061825   -0.946137    0.262204
 C   -1.548354   -1.655656    1.889562
 C   -3.718115   -1.698559    1.174228
 C   -0.714598    0.334015   -1.296774
 C   -0.122723    1.497326   -1.801908
 C   -1.366787   -0.508059   -2.221181
 C   -0.234637    1.839282   -3.148018
 C   -1.474748   -0.170304   -3.564095
 C   -0.913241    1.013177   -4.036063
 C    4.193812    0.315874    1.292025
 C    3.191403    2.424450    0.724787
 C    4.322419    1.683564    1.054287
 H    2.857735   -1.368072    1.338171
 H    1.066623    2.409425    0.483715
 H   -3.018304   -2.713032    2.944455
 O   -0.520453   -1.873165    2.601619
 H    0.401511    2.174904   -1.157363
 H   -1.765126   -1.451860   -1.882145
 H    0.219212    2.756319   -3.497623
 H   -1.982055   -0.842526   -4.242404
 H   -0.993126    1.279957   -5.080803
 H    5.052547   -0.266354    1.596277
 H    3.261898    3.496881    0.603296
 H   -3.509877   -0.442901   -0.575339
 H   -4.760726   -1.951417    1.239430
 H    5.282530    2.169113    1.158097
}
memory 8.166666666666666GB
set_num_threads(2)
psi4_io.set_default_path("/scratch/bdw2292/Psi4-1_16_Index_0-farH_in17")
set freeze_core True
E, wfn = energy('wb97x-d/6-311+G*',return_wfn=True)
oeprop(wfn,"WIBERG_LOWDIN_INDICES")
clean()
