molecule { 
0 1
 C   -0.520683   -0.038810    0.228686
 N    0.550630   -0.913590    0.107380
 C    1.831222   -0.888979   -0.502591
 C    2.367534   -2.113675   -0.986784
 H    0.479938   -1.670702    0.804492
 C    2.720158    0.204762   -0.338536
 C   -1.433843   -0.392447    1.214354
 N   -2.426075   -0.355366    3.242001
 C   -2.519888   -1.341015    1.213484
 C   -1.389870    0.227620    2.549066
 C   -3.099393   -1.284922    2.443365
 C   -0.856886    1.091454   -0.712136
 C   -2.229284    1.296650   -1.050064
 C    0.086223    2.000469   -1.264549
 C   -2.626587    2.337116   -1.899766
 C   -0.316031    3.039479   -2.117035
 C   -1.672689    3.215719   -2.441419
 C    3.685528   -2.180082   -1.459210
 C    4.034657    0.136759   -0.821124
 C    4.524321   -1.050160   -1.400130
 H    1.739742   -3.007477   -1.021030
 H    2.401532    1.099998    0.196719
 H   -2.629946   -0.107555    4.199211
 O   -0.601328    1.083082    3.002895
 H   -2.996451    0.632332   -0.649132
 H    1.140518    1.919213   -1.041685
 H   -3.683346    2.463493   -2.142141
 H    0.433287    3.717254   -2.530357
 H   -1.981637    4.025854   -3.104454
 H    4.057853   -3.118532   -1.873883
 H    4.682480    1.010597   -0.731937
 H   -2.824627   -1.977222    0.394520
 H   -3.940217   -1.836405    2.840465
 H    5.546316   -1.099569   -1.779784
}
set optking { 
  frozen_dihedral = ("
    2 1 12 13
    7 1 2 3
    1 2 3 4
  ")
}
set {
  geom_maxiter 400
  g_convergence GAU_LOOSE
  dynamic_level 1
}
memory 8.166666666666666GB
set_num_threads(2)
psi4_io.set_default_path("/scratch/bdw2292/Psi4-1_16_Index_0-farH_in17")
for _ in range(1):
  try:
    set opt_coordinates both
    optimize('wb97x-d/6-311G')
    break
  except OptimizationConvergenceError:
    break
  else:
    try:
      set opt_coordinates cartesian
      optimize('wb97x-d/6-311G')
      break
    except OptimizationConvergenceError:
      pass
clean()
