molecule { 
0 1
 C   -0.635001   -0.370997    0.206440
 N    0.504249   -1.148758    0.067415
 C    1.768536   -0.803266   -0.466730
 C    2.525480    0.251450    0.098211
 H    0.476632   -2.023646    0.626622
 C    2.275428   -1.503825   -1.587420
 C   -1.668867   -0.825756    1.036824
 N   -2.760511   -2.126868    2.552811
 C   -3.009817   -0.320161    1.227152
 C   -1.558489   -2.024762    1.896778
 C   -3.627481   -1.110574    2.146822
 C   -0.693657    0.958594   -0.468035
 C   -1.082372    2.119300    0.250711
 C   -0.427519    1.075211   -1.858076
 C   -1.179780    3.357858   -0.397059
 C   -0.522590    2.317283   -2.499264
 C   -0.898054    3.465920   -1.773886
 C    3.765907    0.598151   -0.454087
 C    3.516645   -1.148391   -2.133201
 C    4.271153   -0.096336   -1.573123
 H    2.142524    0.796659    0.963234
 H    1.699144   -2.320675   -2.027131
 H   -2.949851   -2.861152    3.219310
 O   -0.586634   -2.813142    2.016839
 H   -1.300504    2.044539    1.317684
 H   -0.149093    0.189246   -2.431529
 H   -1.475977    4.242408    0.169650
 H   -0.308062    2.393538   -3.566751
 H   -0.972781    4.432482   -2.275663
 H    4.339668    1.413111   -0.009838
 H    3.896176   -1.694407   -2.998538
 H   -3.453382    0.534421    0.735297
 H   -4.625190   -1.049754    2.558546
 H    5.237222    0.177642   -2.001127
}
set optking { 
  frozen_dihedral = ("
    1 2 3 4
    2 1 12 13
    7 1 2 3
  ")
}
set {
  geom_maxiter 400
  g_convergence GAU_LOOSE
  dynamic_level 1
}
memory 8.166666666666666GB
set_num_threads(2)
psi4_io.set_default_path("/scratch/bdw2292/Psi4-1_16_Index_0-farH_in17")
for _ in range(1):
  try:
    set opt_coordinates both
    optimize('wb97x-d/6-311G')
    break
  except OptimizationConvergenceError:
    break
  else:
    try:
      set opt_coordinates cartesian
      optimize('wb97x-d/6-311G')
      break
    except OptimizationConvergenceError:
      pass
clean()
