molecule { 
0 1
 C   -0.553516   -0.080630    0.357896
 N    0.689037   -0.546261    0.676075
 C    1.966834   -0.290726    0.131056
 C    2.237506    0.562360   -0.945379
 H    0.704643   -1.009186    1.590089
 C    3.031706   -0.979778    0.733075
 C   -1.577937   -0.269488    1.260827
 N   -2.612334   -0.879367    3.177366
 C   -3.003901    0.004591    1.143377
 C   -1.370531   -0.856950    2.582796
 C   -3.588268   -0.363679    2.305224
 C   -0.849115    0.455040   -0.995208
 C   -1.477070    1.693085   -1.148569
 C   -0.577815   -0.325162   -2.125548
 C   -1.804250    2.160353   -2.419943
 C   -0.912544    0.139813   -3.391800
 C   -1.522205    1.385808   -3.542349
 C    3.545875    0.708637   -1.402476
 C    4.331043   -0.822773    0.270888
 C    4.598188    0.019906   -0.807259
 H    1.454386    1.131722   -1.415233
 H    2.828647   -1.638937    1.567437
 H   -2.770664   -1.243735    4.096530
 O   -0.299748   -1.290409    3.097397
 H   -1.693050    2.290027   -0.273038
 H   -0.099634   -1.287622   -2.004338
 H   -2.279303    3.125327   -2.531540
 H   -0.700673   -0.468105   -4.260505
 H   -1.778835    1.747175   -4.528734
 H    3.736417    1.375335   -2.232714
 H    5.134989   -1.362161    0.752858
 H   -3.503076    0.413971    0.283574
 H   -4.619858   -0.318881    2.604103
 H    5.608669    0.140659   -1.171524
}
memory 8.166666666666666GB
set_num_threads(2)
psi4_io.set_default_path("/scratch/bdw2292/Psi4-1_16_Index_0-farH_in17")
set freeze_core True
E, wfn = energy('wb97x-d/6-311+G*',return_wfn=True)
oeprop(wfn,"WIBERG_LOWDIN_INDICES")
clean()
