molecule { 
0 1
 C   -0.613018   -0.308802    0.259129
 N    0.654303   -0.856798    0.414801
 C    1.920643   -0.531014   -0.137871
 C    2.863856   -1.579034   -0.309020
 H    0.693211   -1.530971    1.204666
 C    2.307661    0.793090   -0.465424
 C   -1.622314   -0.647690    1.167773
 N   -2.641407   -1.644508    2.940289
 C   -3.002777   -0.224193    1.225664
 C   -1.429647   -1.582331    2.297552
 C   -3.579916   -0.834564    2.296578
 C   -0.855996    0.740517   -0.761209
 C   -0.934666    2.104181   -0.383879
 C   -1.014863    0.387310   -2.122807
 C   -1.165244    3.090903   -1.350903
 C   -1.247381    1.378578   -3.085646
 C   -1.323332    2.735276   -2.706505
 C    4.137691   -1.311628   -0.827861
 C    3.584060    1.050103   -0.985668
 C    4.507575    0.002730   -1.174509
 H    2.596074   -2.603458   -0.039958
 H    1.626383    1.628151   -0.313664
 H   -2.787351   -2.214905    3.760336
 O   -0.388715   -2.206740    2.625776
 H   -0.814466    2.377326    0.666299
 H   -0.953604   -0.662568   -2.415665
 H   -1.222205    4.138725   -1.051397
 H   -1.370150    1.098491   -4.133323
 H   -1.504279    3.505811   -3.458252
 H    4.843713   -2.133177   -0.961089
 H    3.859458    2.074509   -1.242376
 H   -3.498190    0.454974    0.545438
 H   -4.591509   -0.770739    2.672430
 H    5.499561    0.207787   -1.580817
}
set optking { 
  frozen_dihedral = ("
    2 1 12 13
    7 1 2 3
    1 2 3 4
  ")
}
set {
  geom_maxiter 400
  g_convergence GAU_LOOSE
  dynamic_level 1
}
memory 8.166666666666666GB
set_num_threads(2)
psi4_io.set_default_path("/scratch/bdw2292/Psi4-1_16_Index_0-farH_in17")
for _ in range(1):
  try:
    set opt_coordinates both
    optimize('wb97x-d/6-311G')
    break
  except OptimizationConvergenceError:
    break
  else:
    try:
      set opt_coordinates cartesian
      optimize('wb97x-d/6-311G')
      break
    except OptimizationConvergenceError:
      pass
clean()
