molecule { 
0 1
 C   -0.586512   -0.293414    0.357764
 N    0.651495   -0.897511    0.511990
 C    1.887118   -0.579672   -0.100858
 C    2.555153   -1.552515   -0.882218
 H    0.708913   -1.510144    1.348923
 C    2.463590    0.703874    0.057594
 C   -1.598376   -0.573363    1.286270
 N   -2.588657   -1.376308    3.171561
 C   -3.008488   -0.256541    1.260153
 C   -1.373663   -1.337216    2.532851
 C   -3.565228   -0.737531    2.404971
 C   -0.776863    0.703429   -0.735334
 C   -1.359687    1.969395   -0.466118
 C   -0.437964    0.379749   -2.075821
 C   -1.573316    2.888564   -1.501537
 C   -0.649477    1.305246   -3.105935
 C   -1.216711    2.564669   -2.826051
 C    3.773276   -1.239277   -1.500770
 C    3.682168    1.006980   -0.564811
 C    4.346098    0.040698   -1.348897
 H    2.120448   -2.546783   -1.004274
 H    1.958092    1.459762    0.661848
 H   -2.713101   -1.828392    4.065490
 O   -0.308675   -1.861288    2.946431
 H   -1.636411    2.228865    0.557553
 H   -0.010637   -0.598262   -2.304578
 H   -2.017639    3.860390   -1.279400
 H   -0.375398    1.047317   -4.130412
 H   -1.380487    3.284073   -3.630378
 H    4.276979   -1.997110   -2.103055
 H    4.115493    2.000385   -0.437869
 H   -3.536645    0.273865    0.479903
 H   -4.586379   -0.688120    2.756304
 H    5.294651    0.281528   -1.832401
}
set optking { 
  frozen_dihedral = ("
    1 2 3 4
    2 1 12 13
    7 1 2 3
  ")
}
set {
  geom_maxiter 400
  g_convergence GAU_LOOSE
  dynamic_level 1
}
memory 8.166666666666666GB
set_num_threads(2)
psi4_io.set_default_path("/scratch/bdw2292/Psi4-1_16_Index_0-farH_in17")
for _ in range(1):
  try:
    set opt_coordinates both
    optimize('wb97x-d/6-311G')
    break
  except OptimizationConvergenceError:
    break
  else:
    try:
      set opt_coordinates cartesian
      optimize('wb97x-d/6-311G')
      break
    except OptimizationConvergenceError:
      pass
clean()
