molecule { 
0 1
 C   -0.615536   -0.337409    0.155074
 N    0.689782   -0.772637    0.394692
 C    1.988225   -0.448374   -0.088795
 C    2.949948   -1.499690   -0.079991
 H    0.718331   -1.440956    1.189469
 C    2.398738    0.824770   -0.555806
 C   -1.615744   -0.705576    1.066344
 N   -2.629297   -1.752823    2.816559
 C   -3.004923   -0.309842    1.125730
 C   -1.412661   -1.650152    2.187851
 C   -3.578154   -0.949670    2.181039
 C   -0.925680    0.752913   -0.805009
 C   -0.616347    2.104279   -0.511688
 C   -1.515722    0.436712   -2.052722
 C   -0.893256    3.112621   -1.443688
 C   -1.794260    1.448966   -2.980572
 C   -1.483607    2.792088   -2.683248
 C    4.256845   -1.282271   -0.536438
 C    3.708274    1.032448   -1.013506
 C    4.647562   -0.015813   -1.009626
 H    2.671794   -2.491990    0.284574
 H    1.718234    1.667472   -0.571906
 H   -2.770925   -2.341115    3.624740
 O   -0.359615   -2.250597    2.521899
 H   -0.172674    2.354727    0.454316
 H   -1.751102   -0.603383   -2.286432
 H   -0.651196    4.149915   -1.205950
 H   -2.253137    1.195151   -3.937629
 H   -1.700003    3.578947   -3.408090
 H    4.972583   -2.105998   -0.522435
 H    3.995691    2.021281   -1.375625
 H   -3.509943    0.371149    0.454499
 H   -4.593986   -0.912000    2.548704
 H    5.664920    0.152197   -1.367447
}
set optking { 
  frozen_dihedral = ("
    2 1 12 13
    7 1 2 3
    1 2 3 4
  ")
}
set {
  geom_maxiter 400
  g_convergence GAU_LOOSE
  dynamic_level 1
}
memory 8.166666666666666GB
set_num_threads(2)
psi4_io.set_default_path("/scratch/bdw2292/Psi4-1_16_Index_0-farH_in17")
for _ in range(1):
  try:
    set opt_coordinates both
    optimize('wb97x-d/6-311G')
    break
  except OptimizationConvergenceError:
    break
  else:
    try:
      set opt_coordinates cartesian
      optimize('wb97x-d/6-311G')
      break
    except OptimizationConvergenceError:
      pass
clean()
