molecule { 
0 1
 C   -0.589359   -0.075949    0.282810
 N    0.650176   -0.647570    0.378072
 C    1.955098   -0.305492   -0.052416
 C    2.827945   -1.357876   -0.347235
 H    0.641409   -1.479848    0.988207
 C    2.472835    0.991490    0.065325
 C   -1.544520   -0.614243    1.156526
 N   -2.389444   -2.044560    2.710242
 C   -2.875488   -0.174741    1.570923
 C   -1.261795   -1.803293    1.961617
 C   -3.342539   -1.043698    2.496479
 C   -0.950777    0.880046   -0.817042
 C   -0.016844    1.431661   -1.712482
 C   -2.308483    1.107203   -1.118247
 C   -0.409486    2.246975   -2.769572
 C   -2.702266    1.925825   -2.169505
 C   -1.753377    2.521681   -2.993886
 C    4.169239   -1.105761   -0.619152
 C    3.810512    1.240265   -0.222552
 C    4.664284    0.195317   -0.574634
 H    2.439880   -2.367127   -0.375809
 H    1.831791    1.794046    0.402278
 H   -2.461950   -2.816241    3.343883
 O   -0.214701   -2.520981    2.000436
 H    1.031596    1.229858   -1.615853
 H   -3.076141    0.594031   -0.570812
 H    0.347340    2.655446   -3.425111
 H   -3.757208    2.072422   -2.356709
 H   -2.056590    3.159748   -3.812384
 H    4.827397   -1.929725   -0.858264
 H    4.192736    2.248782   -0.141333
 H   -3.373450    0.737735    1.304359
 H   -4.259079   -1.023155    3.057306
 H    5.705829    0.390861   -0.787999
}
memory 8.166666666666666GB
set_num_threads(2)
psi4_io.set_default_path("/scratch/bdw2292/Psi4-1_16_Index_0-farH_in17")
set freeze_core True
E, wfn = energy('wb97x-d/6-311+G*',return_wfn=True)
oeprop(wfn,"WIBERG_LOWDIN_INDICES")
clean()
