molecule { 
0 1
 C   -0.499154   -0.161549    0.345814
 N    0.715243   -0.755421    0.522085
 C    1.976377   -0.477978   -0.082855
 C    2.241024   -0.576156   -1.448562
 H    0.763072   -1.295457    1.393010
 C    3.019378   -0.142217    0.791247
 C   -1.489790   -0.415857    1.274612
 N   -2.444610   -1.179278    3.175888
 C   -2.894851   -0.032570    1.291686
 C   -1.244097   -1.166651    2.500893
 C   -3.433779   -0.502426    2.439351
 C   -0.831185    0.617708   -0.877523
 C   -1.365522    1.904761   -0.750670
 C   -0.843749    0.005170   -2.135620
 C   -1.809505    2.600698   -1.871499
 C   -1.296699    0.696137   -3.254999
 C   -1.767491    2.001434   -3.128195
 C    3.520251   -0.305064   -1.931805
 C    4.296877    0.109945    0.306352
 C    4.551089    0.039210   -1.062720
 H    1.471681   -0.878375   -2.136126
 H    2.809925   -0.076520    1.850698
 H   -2.569229   -1.636129    4.058304
 O   -0.171255   -1.712425    2.896528
 H   -1.412029    2.362412    0.228078
 H   -0.542148   -1.028466   -2.227498
 H   -2.196098    3.604497   -1.761180
 H   -1.299898    0.209273   -4.220708
 H   -2.116668    2.539531   -3.998816
 H    3.708881   -0.379396   -2.994201
 H    5.088864    0.369448    0.995623
 H   -3.413376    0.511435    0.522400
 H   -4.439927   -0.430739    2.810927
 H    5.541620    0.242990   -1.445130
}
memory 8.166666666666666GB
set_num_threads(2)
psi4_io.set_default_path("/scratch/bdw2292/Psi4-1_16_Index_0-farH_in17")
set freeze_core True
E, wfn = energy('wb97x-d/6-311+G*',return_wfn=True)
oeprop(wfn,"WIBERG_LOWDIN_INDICES")
clean()
