molecule { 
0 1
 C   -0.591282   -0.242651    0.322701
 N    0.633031   -0.896436    0.401132
 C    1.894109   -0.601730   -0.178598
 C    2.776982   -1.671542   -0.475924
 H    0.669949   -1.572236    1.189214
 C    2.326240    0.729495   -0.410751
 C   -1.597767   -0.577124    1.240125
 N   -2.589391   -1.530611    3.054333
 C   -2.995403   -0.208274    1.274116
 C   -1.383318   -1.469601    2.400569
 C   -3.552638   -0.782853    2.374604
 C   -0.809081    0.799442   -0.720581
 C   -1.339275    2.069555   -0.375145
 C   -0.555749    0.512705   -2.087531
 C   -1.583933    3.029755   -1.365345
 C   -0.799637    1.478476   -3.072574
 C   -1.313591    2.742427   -2.718582
 C    4.039636   -1.414761   -1.027210
 C    3.589591    0.975125   -0.965966
 C    4.454794   -0.091973   -1.281188
 H    2.471552   -2.701773   -0.279525
 H    1.683079    1.573535   -0.158427
 H   -2.717771   -2.067474    3.899480
 O   -0.332674   -2.071403    2.738928
 H   -1.550664    2.298934    0.671141
 H   -0.169311   -0.468405   -2.370341
 H   -1.985243    4.005012   -1.084671
 H   -0.591780    1.248763   -4.118982
 H   -1.503372    3.493084   -3.487997
 H    4.701347   -2.251029   -1.259375
 H    3.900338    2.004728   -1.151685
 H   -3.516615    0.414011    0.559911
 H   -4.566413   -0.733978    2.746792
 H    5.437418    0.104151   -1.713759
}
set optking { 
  frozen_dihedral = ("
    1 2 3 4
    2 1 12 13
    7 1 2 3
  ")
}
set {
  geom_maxiter 400
  g_convergence GAU_LOOSE
  dynamic_level 1
}
memory 8.166666666666666GB
set_num_threads(2)
psi4_io.set_default_path("/scratch/bdw2292/Psi4-1_16_Index_0-farH_in17")
for _ in range(1):
  try:
    set opt_coordinates both
    optimize('wb97x-d/6-311G')
    break
  except OptimizationConvergenceError:
    break
  else:
    try:
      set opt_coordinates cartesian
      optimize('wb97x-d/6-311G')
      break
    except OptimizationConvergenceError:
      pass
clean()
