molecule { 
0 1
 C   -0.527605   -0.137934    0.270752
 N    0.653354   -0.878937    0.203554
 C    1.963698   -0.644257   -0.302744
 C    3.035905   -1.304060    0.366660
 H    0.604788   -1.710777    0.821982
 C    2.283956    0.205207   -1.392982
 C   -1.543245   -0.588290    1.131842
 N   -2.586979   -1.833813    2.731315
 C   -2.897194   -0.111254    1.311276
 C   -1.391144   -1.729559    2.064679
 C   -3.486336   -0.869099    2.275737
 C   -0.800843    0.985807   -0.665729
 C   -1.208821    2.250964   -0.170268
 C   -0.874593    0.749071   -2.063986
 C   -1.592119    3.271247   -1.050225
 C   -1.254929    1.773411   -2.940848
 C   -1.608705    3.042749   -2.441020
 C    4.360960   -1.135366   -0.055766
 C    3.614115    0.367024   -1.808536
 C    4.662206   -0.301203   -1.148094
 H    2.830304   -1.954671    1.220983
 H    1.518450    0.755141   -1.929208
 H   -2.750650   -2.534602    3.439502
 O   -0.392532   -2.476127    2.231229
 H   -1.213800    2.427320    0.907179
 H   -0.635725   -0.243056   -2.453065
 H   -1.880710    4.246678   -0.655028
 H   -1.279826    1.583900   -4.015420
 H   -1.902199    3.840808   -3.125411
 H    5.160842   -1.658889    0.470906
 H    3.832245    1.021841   -2.654309
 H   -3.370983    0.703320    0.781076
 H   -4.483445   -0.815204    2.690037
 H    5.694717   -0.172047   -1.477181
}
set optking { 
  frozen_dihedral = ("
    1 2 3 4
    2 1 12 13
    7 1 2 3
  ")
}
set {
  geom_maxiter 400
  g_convergence GAU_LOOSE
  dynamic_level 1
}
memory 8.166666666666666GB
set_num_threads(2)
psi4_io.set_default_path("/scratch/bdw2292/Psi4-1_16_Index_0-farH_in17")
for _ in range(1):
  try:
    set opt_coordinates both
    optimize('wb97x-d/6-311G')
    break
  except OptimizationConvergenceError:
    break
  else:
    try:
      set opt_coordinates cartesian
      optimize('wb97x-d/6-311G')
      break
    except OptimizationConvergenceError:
      pass
clean()
