molecule { 
0 1
 C   -0.560373   -0.298381    0.358822
 N    0.690807   -0.860221    0.572439
 C    1.934671   -0.564701   -0.034611
 C    2.362017   -1.261508   -1.190207
 H    0.746158   -1.416125    1.448005
 C    2.742991    0.471137    0.492669
 C   -1.575046   -0.545216    1.293755
 N   -2.563543   -1.205151    3.234232
 C   -2.999008   -0.311197    1.210662
 C   -1.338659   -1.169506    2.613860
 C   -3.555225   -0.701501    2.389665
 C   -0.771929    0.641384   -0.782133
 C   -1.399278    1.896859   -0.563430
 C   -0.461906    0.264254   -2.115021
 C   -1.656159    2.763542   -1.633457
 C   -0.716464    1.136677   -3.181555
 C   -1.310124    2.393084   -2.948041
 C    3.568356   -0.914079   -1.813337
 C    3.949450    0.809105   -0.135337
 C    4.369997    0.123786   -1.294177
 H    1.754872   -2.074313   -1.593972
 H    2.424056    1.009809    1.387461
 H   -2.684417   -1.568284    4.168409
 O   -0.257965   -1.595575    3.093864
 H   -1.672981    2.192421    0.451249
 H   -0.031491   -0.716479   -2.314601
 H   -2.126366    3.730258   -1.445047
 H   -0.457669    0.837033   -4.198672
 H   -1.505251    3.072150   -3.780087
 H    3.884262   -1.455426   -2.706769
 H    4.562601    1.610684    0.279978
 H   -3.535829    0.107991    0.370704
 H   -4.585202   -0.670494    2.716740
 H    5.307808    0.393326   -1.783173
}
set optking { 
  frozen_dihedral = ("
    1 2 3 4
    2 1 12 13
    7 1 2 3
  ")
}
set {
  geom_maxiter 400
  g_convergence GAU_LOOSE
  dynamic_level 1
}
memory 8.166666666666666GB
set_num_threads(2)
psi4_io.set_default_path("/scratch/bdw2292/Psi4-1_16_Index_0-farH_in17")
for _ in range(1):
  try:
    set opt_coordinates both
    optimize('wb97x-d/6-311G')
    break
  except OptimizationConvergenceError:
    break
  else:
    try:
      set opt_coordinates cartesian
      optimize('wb97x-d/6-311G')
      break
    except OptimizationConvergenceError:
      pass
clean()
