molecule { 
0 1
 C   -0.553160   -0.143952    0.425008
 N    0.690389   -0.642607    0.675404
 C    1.907797   -0.390923   -0.000370
 C    2.187180    0.815460   -0.649704
 H    0.758540   -1.137587    1.568865
 C    2.882088   -1.394598    0.034849
 C   -1.532431   -0.282865    1.384264
 N   -2.480191   -0.874951    3.350400
 C   -2.949410    0.054533    1.352955
 C   -1.274767   -0.899513    2.682984
 C   -3.481190   -0.305656    2.542857
 C   -0.852508    0.461066   -0.897551
 C   -1.458781    1.717589   -0.983477
 C   -0.548081   -0.237581   -2.071011
 C   -1.752043    2.270667   -2.227627
 C   -0.849138    0.313507   -3.311431
 C   -1.448523    1.569969   -3.392965
 C    3.417046    0.995994   -1.276026
 C    4.114856   -1.198239   -0.577459
 C    4.386029   -0.004682   -1.244334
 H    1.457744    1.610658   -0.658660
 H    2.661780   -2.325294    0.540840
 H   -2.600186   -1.246034    4.272737
 O   -0.197163   -1.388269    3.127475
 H   -1.685131    2.261386   -0.076329
 H   -0.075084   -1.207904   -2.006290
 H   -2.214651    3.246508   -2.285489
 H   -0.615255   -0.235482   -4.213131
 H   -1.677810    1.999072   -4.358815
 H    3.620888    1.931983   -1.778161
 H    4.860129   -1.980893   -0.537562
 H   -3.479813    0.497048    0.528833
 H   -4.490591   -0.218949    2.902382
 H    5.341646    0.145776   -1.726815
}
memory 8.166666666666666GB
set_num_threads(2)
psi4_io.set_default_path("/scratch/bdw2292/Psi4-1_16_Index_0-farH_in17")
set freeze_core True
E, wfn = energy('wb97x-d/6-311+G*',return_wfn=True)
oeprop(wfn,"WIBERG_LOWDIN_INDICES")
clean()
