molecule { 
0 1
 C   -0.525868   -0.206939    0.293964
 N    0.576986   -0.997865    0.167133
 C    1.861160   -0.704302   -0.382118
 C    2.949628   -0.798845    0.494406
 H    0.543180   -1.819555    0.780345
 C    2.095138   -0.422311   -1.727485
 C   -1.539661   -0.630376    1.131825
 N   -2.596620   -1.885909    2.686213
 C   -2.863832   -0.074921    1.375592
 C   -1.412066   -1.803957    1.988008
 C   -3.465791   -0.846052    2.309281
 C   -0.721025    1.015295   -0.531496
 C   -1.042644    2.223641    0.097780
 C   -0.810334    0.939106   -1.925493
 C   -1.352918    3.353042   -0.653987
 C   -1.128108    2.065738   -2.677651
 C   -1.386988    3.279390   -2.044632
 C    4.245574   -0.587891    0.038454
 C    3.394684   -0.194632   -2.176877
 C    4.472879   -0.274209   -1.300675
 H    2.762551   -1.033910    1.533664
 H    1.281393   -0.399361   -2.430130
 H   -2.789657   -2.610627    3.349929
 O   -0.440185   -2.610550    2.090559
 H   -1.029007    2.275761    1.177810
 H   -0.678683   -0.013765   -2.416842
 H   -1.576443    4.285316   -0.153843
 H   -1.190959    1.990645   -3.754674
 H   -1.631432    4.155553   -2.629434
 H    5.074284   -0.663726    0.728942
 H    3.560813    0.028331   -3.222029
 H   -3.291875    0.782862    0.888109
 H   -4.445342   -0.766722    2.744887
 H    5.478853   -0.102699   -1.657817
}
memory 8.166666666666666GB
set_num_threads(2)
psi4_io.set_default_path("/scratch/bdw2292/Psi4-1_16_Index_0-farH_in17")
set freeze_core True
E, wfn = energy('wb97x-d/6-311+G*',return_wfn=True)
oeprop(wfn,"WIBERG_LOWDIN_INDICES")
clean()
