molecule { 
0 1
 C   -0.384938   -0.160076    0.585095
 N    0.871063   -0.658515    0.404889
 C    1.793435   -0.387024   -0.634509
 C    2.695531   -1.398156   -0.980961
 H    1.231278   -1.165697    1.217727
 C    1.869691    0.853274   -1.276024
 C   -0.993241   -0.314003    1.811153
 N   -1.236208   -0.926128    3.975057
 C   -2.342433    0.013752    2.252779
 C   -0.322101   -0.945265    2.944486
 C   -2.449787   -0.356161    3.548533
 C   -1.101786    0.459772   -0.558317
 C   -1.179271   -0.210772   -1.784182
 C   -1.704139    1.714341   -0.422657
 C   -1.858863    0.361670   -2.853554
 C   -2.377701    2.288942   -1.498060
 C   -2.457700    1.613572   -2.714037
 C    3.653056   -1.176281   -1.965052
 C    2.817608    1.060240   -2.273409
 C    3.712535    0.050767   -2.623543
 H    2.635082   -2.353913   -0.477422
 H    1.199536    1.651155   -0.993478
 H   -1.043305   -1.304400    4.881932
 O    0.842007   -1.435706    3.002069
 H   -0.706135   -1.177051   -1.893890
 H   -1.629723    2.240219    0.519560
 H   -1.919332   -0.166407   -3.795104
 H   -2.835303    3.262545   -1.386359
 H   -2.981401    2.059380   -3.548711
 H    4.347553   -1.964951   -2.220432
 H    2.864216    2.021430   -2.767098
 H   -3.117116    0.458902    1.654356
 H   -3.283937   -0.278342    4.222185
 H    4.451309    0.220465   -3.394260
}
memory 8.166666666666666GB
set_num_threads(2)
psi4_io.set_default_path("/scratch/bdw2292/Psi4-1_16_Index_0-farH_in17")
set freeze_core True
E, wfn = energy('wb97x-d/6-311+G*',return_wfn=True)
oeprop(wfn,"WIBERG_LOWDIN_INDICES")
clean()
