molecule { 
0 1
 N   -0.239479    0.270663   -0.736146
 C    0.885797   -0.021943    0.009571
 C    2.221926    0.138960   -0.699923
 N    3.274347   -0.745116   -0.210029
 O    0.799956   -0.363397    1.200693
 H    2.104763   -0.069649   -1.760890
 H    2.508074    1.209155   -0.622364
 C   -1.533338    0.246877   -0.111216
 C   -4.074171    0.211433    1.046608
 C   -3.236471   -0.897459    1.154137
 C   -3.633853    1.343088    0.364697
 C   -1.971197   -0.885622    0.575347
 C   -2.363467    1.365033   -0.205275
 C   -0.170129    0.669725   -2.147361
 C    4.411527   -0.762655   -1.130867
 C    3.718696   -0.460618    1.160052
 H   -3.567753   -1.777055    1.688697
 H   -4.271135    2.213334    0.285744
 H   -1.315748   -1.736725    0.669138
 H   -2.011663    2.254475   -0.711123
 H   -1.176793    0.883264   -2.493847
 H    0.438026    1.564544   -2.290324
 H    0.227797   -0.135204   -2.767943
 H    4.089058   -1.068933   -2.127026
 H    4.908517    0.221199   -1.210868
 H    4.201750    0.531266    1.233708
 H    2.870927   -0.496234    1.833223
 H   -5.057907    0.195780    1.495130
 H    5.146185   -1.485848   -0.778621
 H    4.443415   -1.217395    1.460221
}
memory 8.166666666666666GB
set_num_threads(2)
psi4_io.set_default_path("/scratch/bdw2292/Psi4-25_27_Index_0-farH_in17")
set freeze_core True
E, wfn = energy('wb97x-d/6-311+G*',return_wfn=True)
oeprop(wfn,"WIBERG_LOWDIN_INDICES")
clean()
