molecule { 
0 1
 N   -0.285514    0.470130   -0.670320
 C    0.884553    0.085666    0.035487
 C    2.247669    0.366141   -0.680441
 N    3.356647   -0.563367   -0.337492
 O    0.816315   -0.365023    1.182116
 H    2.171234    0.379477   -1.778600
 H    2.585676    1.383754   -0.413930
 C   -1.581352    0.341512   -0.028290
 C   -4.125076    0.117531    1.185646
 C   -3.277025   -0.995643    1.118645
 C   -3.704877    1.342116    0.650559
 C   -2.013476   -0.894818    0.520401
 C   -2.445095    1.464549    0.047184
 C   -0.303465    0.722252   -2.131330
 C    4.486730   -0.428497   -1.279232
 C    3.835188   -0.357340    1.047991
 H   -3.598857   -1.952371    1.533670
 H   -4.360995    2.213087    0.698870
 H   -1.361299   -1.769092    0.482657
 H   -2.134169    2.428238   -0.361851
 H   -1.325051    0.827787   -2.498921
 H    0.231944    1.643110   -2.364497
 H    0.150389   -0.112347   -2.667017
 H    4.145132   -0.663832   -2.300771
 H    4.908043    0.591013   -1.257516
 H    4.251889    0.654196    1.189399
 H    2.991049   -0.502055    1.738496
 H   -5.107925    0.030792    1.652895
 H    5.272643   -1.156263   -1.019099
 H    4.599151   -1.112229    1.295165
}
set optking { 
  frozen_dihedral = ("
    1 2 3 4
    2 1 8 12
    8 1 2 3
    2 3 4 15
  ")
}
set {
  geom_maxiter 400
  g_convergence GAU_LOOSE
  dynamic_level 1
}
memory 8.166666666666666GB
set_num_threads(2)
psi4_io.set_default_path("/scratch/bdw2292/Psi4-25_27_Index_0-farH_in17")
for _ in range(1):
  try:
    set opt_coordinates both
    optimize('wb97x-d/6-311G')
    break
  except OptimizationConvergenceError:
    break
  else:
    try:
      set opt_coordinates cartesian
      optimize('wb97x-d/6-311G')
      break
    except OptimizationConvergenceError:
      pass
clean()
