molecule { 
0 1
 N   -0.038035    0.183488   -0.360324
 C    0.711130   -1.019674   -0.427367
 C    2.199730   -0.990732   -0.893667
 N    3.231688   -0.199017   -0.138772
 O    0.221030   -2.082556   -0.044272
 H    2.566872   -2.030350   -0.932734
 H    2.256510   -0.667734   -1.947881
 C   -1.378217    0.133089    0.197731
 C   -3.998190    0.141555    1.260518
 C   -3.657624   -0.752276    0.237037
 C   -3.035131    1.032623    1.751750
 C   -2.362905   -0.762597   -0.299422
 C   -1.733433    1.037427    1.230245
 C    0.116008    1.260680   -1.374557
 C    4.596981   -0.573063   -0.567812
 C    3.065665    1.257703   -0.201417
 H   -4.404269   -1.447161   -0.151424
 H   -3.295662    1.734465    2.546087
 H   -2.112910   -1.465153   -1.095955
 H   -0.996359    1.740515    1.623932
 H   -0.780955    1.329535   -1.992724
 H    0.259423    2.222670   -0.881921
 H    0.951460    1.083423   -2.046958
 H    4.747525   -1.654598   -0.417063
 H    4.763809   -0.323516   -1.629429
 H    3.062924    1.618587   -1.242624
 H    2.136600    1.536530    0.313954
 H   -5.009408    0.144292    1.672045
 H    5.341969   -0.050923    0.054617
 H    3.883848    1.751237    0.348275
}
set optking { 
  frozen_dihedral = ("
    1 2 3 4
    2 1 8 12
    8 1 2 3
    2 3 4 15
  ")
}
set {
  geom_maxiter 400
  g_convergence GAU_LOOSE
  dynamic_level 1
}
memory 8.166666666666666GB
set_num_threads(2)
psi4_io.set_default_path("/scratch/bdw2292/Psi4-25_27_Index_0-farH_in17")
for _ in range(1):
  try:
    set opt_coordinates both
    optimize('wb97x-d/6-311G')
    break
  except OptimizationConvergenceError:
    break
  else:
    try:
      set opt_coordinates cartesian
      optimize('wb97x-d/6-311G')
      break
    except OptimizationConvergenceError:
      pass
clean()
