molecule { 
0 1
 N   -0.281459    0.389907   -0.695975
 C    0.856119   -0.224857   -0.115104
 C    2.208012    0.042940   -0.848761
 N    3.408245   -0.578580   -0.235728
 O    0.779989   -0.852095    0.943344
 H    2.169958   -0.293921   -1.898640
 H    2.400473    1.130135   -0.897770
 C   -1.566665    0.290564   -0.029344
 C   -4.088863    0.130785    1.238201
 C   -3.368279   -1.036957    0.955007
 C   -3.551318    1.377537    0.892647
 C   -2.116661   -0.968699    0.327757
 C   -2.300391    1.468345    0.265635
 C   -0.298220    0.889359   -2.092558
 C    4.566928   -0.539368   -1.147058
 C    3.747928    0.050537    1.057309
 H   -3.781636   -2.011147    1.221886
 H   -4.107477    2.291298    1.109798
 H   -1.564667   -1.887048    0.119837
 H   -1.895184    2.449369    0.008435
 H   -1.306941    1.173344   -2.395345
 H    0.340085    1.767906   -2.189163
 H    0.042586    0.114099   -2.779622
 H    4.323767   -1.079175   -2.076934
 H    4.852185    0.499068   -1.387011
 H    3.973695    1.124085    0.941942
 H    2.897712   -0.077502    1.745038
 H   -5.063652    0.069302    1.726071
 H    5.420301   -1.056950   -0.679438
 H    4.613509   -0.463807    1.505416
}
set optking { 
  frozen_dihedral = ("
    1 2 3 4
    2 1 8 12
    8 1 2 3
    2 3 4 15
  ")
}
set {
  geom_maxiter 400
  g_convergence GAU_LOOSE
  dynamic_level 1
}
memory 8.166666666666666GB
set_num_threads(2)
psi4_io.set_default_path("/scratch/bdw2292/Psi4-25_27_Index_0-farH_in17")
for _ in range(1):
  try:
    set opt_coordinates both
    optimize('wb97x-d/6-311G')
    break
  except OptimizationConvergenceError:
    break
  else:
    try:
      set opt_coordinates cartesian
      optimize('wb97x-d/6-311G')
      break
    except OptimizationConvergenceError:
      pass
clean()
