molecule { 
0 1
 N   -0.055600    0.267278   -0.114375
 C    0.682764   -0.923675   -0.329138
 C    2.214415   -0.965070   -0.651708
 N    3.314856   -0.003389   -0.222844
 O    0.117190   -2.007883   -0.174335
 H    2.567128   -1.970094   -0.362650
 H    2.292301   -1.001752   -1.753795
 C   -1.441731    0.138465    0.309546
 C   -4.139005   -0.005139    1.147365
 C   -3.719088   -0.702113    0.006717
 C   -3.217896    0.769278    1.864560
 C   -2.385907   -0.635160   -0.419828
 C   -1.879457    0.849630    1.455367
 C    0.132664    1.463627   -0.965132
 C    4.643625   -0.620546   -0.481098
 C    3.284338    1.313443   -0.874619
 H   -4.433623   -1.302036   -0.559683
 H   -3.540132    1.320358    2.750233
 H   -2.074519   -1.183807   -1.310245
 H   -1.175765    1.461088    2.024237
 H   -0.809184    1.758922   -1.431924
 H    0.469087    2.305543   -0.360971
 H    0.823214    1.269220   -1.782736
 H    4.718609   -1.575557    0.064576
 H    4.799819   -0.802182   -1.558449
 H    3.151486    1.224666   -1.965277
 H    2.488647    1.910326   -0.420388
 H   -5.178893   -0.063846    1.474203
 H    5.444498    0.032097   -0.095833
 H    4.216234    1.866777   -0.671906
}
set optking { 
  frozen_dihedral = ("
    1 2 3 4
    2 1 8 12
    8 1 2 3
    2 3 4 15
  ")
}
set {
  geom_maxiter 400
  g_convergence GAU_LOOSE
  dynamic_level 1
}
memory 8.166666666666666GB
set_num_threads(2)
psi4_io.set_default_path("/scratch/bdw2292/Psi4-25_27_Index_0-farH_in17")
for _ in range(1):
  try:
    set opt_coordinates both
    optimize('wb97x-d/6-311G')
    break
  except OptimizationConvergenceError:
    break
  else:
    try:
      set opt_coordinates cartesian
      optimize('wb97x-d/6-311G')
      break
    except OptimizationConvergenceError:
      pass
clean()
