molecule { 
0 1
 N   -0.231235    0.232119   -0.756668
 C    0.852488   -0.297885   -0.080496
 C    2.190549   -0.177401   -0.798153
 N    3.310666   -0.721962   -0.056282
 O    0.734622   -0.823133    1.036225
 H    2.117785   -0.724112   -1.742187
 H    2.353878    0.886404   -1.066598
 C   -1.521300    0.268882   -0.129862
 C   -4.065695    0.361386    1.017992
 C   -3.361498   -0.840534    0.962934
 C   -3.491123    1.519619    0.500754
 C   -2.096329   -0.892737    0.386639
 C   -2.219219    1.476290   -0.065422
 C   -0.091921    0.895514   -2.056450
 C    4.496159   -0.864856   -0.896088
 C    3.597100   -0.012008    1.189994
 H   -3.798665   -1.743436    1.366594
 H   -4.025144    2.459042    0.546353
 H   -1.544961   -1.818699    0.352958
 H   -1.764979    2.381229   -0.446571
 H   -1.078297    0.987509   -2.502817
 H    0.347294    1.892995   -1.970274
 H    0.522481    0.303378   -2.732775
 H    4.271594   -1.493386   -1.759001
 H    4.882798    0.104129   -1.262529
 H    3.889334    1.039464    1.009978
 H    2.724561   -0.040467    1.834439
 H   -5.050494    0.395097    1.463213
 H    5.286378   -1.349726   -0.323931
 H    4.418160   -0.511073    1.703785
}
memory 8.166666666666666GB
set_num_threads(2)
psi4_io.set_default_path("/scratch/bdw2292/Psi4-25_27_Index_0-farH_in17")
set freeze_core True
E, wfn = energy('wb97x-d/6-311+G*',return_wfn=True)
oeprop(wfn,"WIBERG_LOWDIN_INDICES")
clean()
