molecule { 
0 1
 N   -0.044243    0.108447   -0.466442
 C    0.966278    0.665503    0.282365
 C    2.349448    0.769485   -0.345537
 N    2.923836   -0.531411   -0.693573
 O    0.787649    1.086875    1.440306
 H    2.290634    1.369446   -1.257310
 H    2.962559    1.317943    0.381550
 C   -1.383376    0.079525    0.046013
 C   -4.014862   -0.056060    0.977491
 C   -2.966388   -0.546483    1.754943
 C   -3.742421    0.504238   -0.267397
 C   -1.656111   -0.486809    1.292374
 C   -2.430837    0.576703   -0.731196
 C    0.149036   -0.271069   -1.872185
 C    4.090803   -0.422114   -1.564616
 C    3.151545   -1.387255    0.469562
 H   -3.168550   -0.982115    2.723888
 H   -4.547068    0.892143   -0.877247
 H   -0.843050   -0.855026    1.897505
 H   -2.222575    1.025973   -1.692408
 H   -0.597665   -1.016727   -2.135059
 H    0.039355    0.584926   -2.544918
 H    1.138074   -0.707350   -1.984323
 H    3.828240    0.133032   -2.466123
 H    4.940232    0.086497   -1.078571
 H    3.916802   -0.976846    1.148540
 H    2.227049   -1.505400    1.033343
 H   -5.032357   -0.108694    1.339646
 H    4.415313   -1.418909   -1.862913
 H    3.473772   -2.373079    0.135444
}
memory 8.166666666666666GB
set_num_threads(2)
psi4_io.set_default_path("/scratch/bdw2292/Psi4-25_27_Index_0-farH_in17")
set freeze_core True
E, wfn = energy('wb97x-d/6-311+G*',return_wfn=True)
oeprop(wfn,"WIBERG_LOWDIN_INDICES")
clean()
