molecule { 
0 1
 N   -0.081547    0.440114   -0.393367
 C    0.954323    0.790910    0.510008
 C    2.379008    0.995354   -0.076622
 N    2.991655   -0.181480   -0.728916
 O    0.738134    0.950123    1.711260
 H    2.403054    1.844457   -0.781025
 H    3.052347    1.301008    0.743450
 C   -1.448503    0.336098    0.089717
 C   -4.115123    0.149661    1.015447
 C   -3.100903   -0.590439    1.636808
 C   -3.799802    0.990207   -0.059840
 C   -1.776115   -0.501739    1.188356
 C   -2.480773    1.093389   -0.524316
 C    0.144581    0.121648   -1.824545
 C    4.181472    0.186879   -1.518300
 C    3.328348   -1.231825    0.253575
 H   -3.339439   -1.243802    2.477886
 H   -4.584522    1.572716   -0.546209
 H   -0.996299   -1.077577    1.689568
 H   -2.255309    1.759851   -1.359344
 H   -0.730234   -0.358971   -2.264126
 H    0.354425    1.034300   -2.382349
 H    0.981079   -0.565072   -1.942236
 H    3.895993    0.911079   -2.298859
 H    4.964042    0.626981   -0.877185
 H    4.083499   -0.877528    0.975235
 H    2.420776   -1.531146    0.802833
 H   -5.145039    0.072743    1.369306
 H    4.581370   -0.706553   -2.025347
 H    3.709578   -2.122915   -0.270986
}
set optking { 
  frozen_dihedral = ("
    1 2 3 4
    2 1 8 12
    8 1 2 3
    2 3 4 15
  ")
}
set {
  geom_maxiter 400
  g_convergence GAU_LOOSE
  dynamic_level 1
}
memory 8.166666666666666GB
set_num_threads(2)
psi4_io.set_default_path("/scratch/bdw2292/Psi4-25_27_Index_0-farH_in17")
for _ in range(1):
  try:
    set opt_coordinates both
    optimize('wb97x-d/6-311G')
    break
  except OptimizationConvergenceError:
    break
  else:
    try:
      set opt_coordinates cartesian
      optimize('wb97x-d/6-311G')
      break
    except OptimizationConvergenceError:
      pass
clean()
