molecule { 
0 1
 N   -0.019222   -0.015818   -0.363972
 C    0.947735    0.623396    0.385031
 C    2.374915    0.784581   -0.129233
 N    2.913356   -0.259448   -0.992784
 O    0.698348    1.110710    1.504895
 H    2.401906    1.730368   -0.679865
 H    2.976438    0.931633    0.779721
 C   -1.364993   -0.046748    0.143864
 C   -3.988456   -0.130065    1.107065
 C   -2.933097   -0.583995    1.896905
 C   -3.725388    0.374866   -0.162769
 C   -1.627412   -0.545716    1.421019
 C   -2.417816    0.425967   -0.640611
 C    0.147785   -0.343212   -1.791692
 C    4.143626    0.146905   -1.666446
 C    3.053384   -1.535839   -0.292380
 H   -3.125349   -0.970704    2.888452
 H   -4.533494    0.741257   -0.781407
 H   -0.810755   -0.883319    2.038869
 H   -2.220041    0.844649   -1.617815
 H   -0.720659   -0.914682   -2.108151
 H    0.217672    0.559996   -2.403825
 H    1.048416   -0.923227   -1.954344
 H    3.961896    1.040803   -2.263867
 H    4.963792    0.361809   -0.960019
 H    3.779999   -1.482698    0.535333
 H    2.090264   -1.840024    0.119297
 H   -5.002894   -0.164961    1.480105
 H    4.470049   -0.648657   -2.336423
 H    3.381806   -2.304390   -0.992415
}
memory 8.166666666666666GB
set_num_threads(2)
psi4_io.set_default_path("/scratch/bdw2292/Psi4-25_27_Index_0-farH_in17")
set freeze_core True
E, wfn = energy('wb97x-d/6-311+G*',return_wfn=True)
oeprop(wfn,"WIBERG_LOWDIN_INDICES")
clean()
