molecule { 
0 1
 N   -0.267015    0.173893   -0.690146
 C    0.917670    0.307034   -0.002465
 C    2.194907    0.454375   -0.812160
 N    3.169935   -0.605286   -0.532951
 O    0.945784    0.374488    1.240586
 H    2.003785    0.454725   -1.880340
 H    2.601023    1.451683   -0.558884
 C   -1.512983    0.140275    0.025694
 C   -3.980279    0.062873    1.325659
 C   -2.958283   -0.806156    1.704472
 C   -3.763012    0.976442    0.296919
 C   -1.727279   -0.774249    1.055896
 C   -2.529278    1.020530   -0.347186
 C   -0.325207   -0.046034   -2.142325
 C    4.232001   -0.622724   -1.538862
 C    3.726679   -0.575740    0.823041
 H   -3.118692   -1.513789    2.506262
 H   -4.546731    1.661080    0.002534
 H   -0.930036   -1.436562    1.353951
 H   -2.347900    1.742815   -1.132131
 H   -1.333722   -0.358847   -2.397657
 H   -0.092429    0.858207   -2.708134
 H    0.355570   -0.843216   -2.439173
 H    3.808415   -0.753091   -2.535690
 H    4.835400    0.302748   -1.533127
 H    4.334199    0.331070    0.993753
 H    2.929486   -0.591553    1.557362
 H   -4.935609    0.031809    1.831200
 H    4.898046   -1.462778   -1.343957
 H    4.362064   -1.450557    0.961174
}
memory 8.166666666666666GB
set_num_threads(2)
psi4_io.set_default_path("/scratch/bdw2292/Psi4-25_27_Index_0-farH_in17")
set freeze_core True
E, wfn = energy('wb97x-d/6-311+G*',return_wfn=True)
oeprop(wfn,"WIBERG_LOWDIN_INDICES")
clean()
