molecule { 
0 1
 N   -0.247029    0.188117   -0.753799
 C    0.818266   -0.525182   -0.239182
 C    2.133664   -0.430668   -1.008072
 N    3.290724   -0.551951   -0.140302
 O    0.722655   -1.181190    0.808003
 H    2.150782   -1.247976   -1.735271
 H    2.174141    0.511388   -1.581954
 C   -1.488551    0.242146   -0.034989
 C   -3.940795    0.412010    1.288094
 C   -3.367403   -0.831267    1.025353
 C   -3.281636    1.572774    0.890327
 C   -2.148145   -0.921658    0.360128
 C   -2.055397    1.488708    0.236389
 C   -0.184357    0.907674   -2.032083
 C    4.525648   -0.768533   -0.881709
 C    3.390019    0.505590    0.858109
 H   -3.871454   -1.736078    1.336567
 H   -3.713265    2.542684    1.097275
 H   -1.695441   -1.881822    0.169496
 H   -1.530885    2.388880   -0.055529
 H   -1.201768    1.103011   -2.362648
 H    0.344973    1.860568   -1.949965
 H    0.299494    0.302051   -2.797422
 H    4.425838   -1.645689   -1.522119
 H    4.807952    0.093726   -1.514713
 H    3.517576    1.506518    0.404089
 H    2.499329    0.507762    1.482833
 H   -4.889970    0.475195    1.802200
 H    5.339463   -0.955553   -0.181412
 H    4.246637    0.311660    1.502644
}
memory 8.166666666666666GB
set_num_threads(2)
psi4_io.set_default_path("/scratch/bdw2292/Psi4-25_27_Index_0-farH_in17")
set freeze_core True
E, wfn = energy('wb97x-d/6-311+G*',return_wfn=True)
oeprop(wfn,"WIBERG_LOWDIN_INDICES")
clean()
