molecule { 
0 1
 N    0.010361    0.307332   -0.161735
 C    0.710208   -0.880085   -0.295923
 C    2.199482   -0.997309   -0.648437
 N    3.244426   -0.025639   -0.307454
 O    0.155466   -1.967885   -0.046368
 H    2.465599   -1.929047   -0.157274
 H    2.225236   -1.217548   -1.738794
 C   -1.358850    0.238937    0.307624
 C   -3.995569    0.295487    1.205715
 C   -3.634244   -0.529128    0.140581
 C   -3.032530    1.087974    1.825250
 C   -2.319176   -0.558101   -0.314373
 C   -1.712637    1.054900    1.378994
 C    0.177952    1.410565   -1.130720
 C    4.552808   -0.653910   -0.523097
 C    3.226023    1.331236   -0.830259
 H   -4.376491   -1.155929   -0.334630
 H   -3.302847    1.722550    2.658201
 H   -2.032562   -1.212911   -1.122211
 H   -0.947382    1.649085    1.859688
 H   -0.739931    1.507639   -1.711753
 H    0.367378    2.359139   -0.631393
 H    0.984181    1.198127   -1.821995
 H    4.610482   -1.594846    0.024524
 H    4.750793   -0.864235   -1.589540
 H    3.123727    1.381873   -1.929904
 H    2.442148    1.918645   -0.365233
 H   -5.019687    0.313615    1.553214
 H    5.340573   -0.000643   -0.148792
 H    4.173437    1.803261   -0.569473
}
memory 8.166666666666666GB
set_num_threads(2)
psi4_io.set_default_path("/scratch/bdw2292/Psi4-25_27_Index_0-farH_in17")
set freeze_core True
E, wfn = energy('wb97x-d/6-311+G*',return_wfn=True)
oeprop(wfn,"WIBERG_LOWDIN_INDICES")
clean()
