molecule { 
0 1
 N   -1.650419   -0.553923    0.294315
 C   -0.412004   -0.248041   -0.170497
 C    0.699496   -0.338774    0.868982
 N    1.743421    0.616393    0.543804
 O   -0.193275   -0.015242   -1.336370
 H    1.036180   -1.391188    0.850545
 H    0.320614   -0.124406    1.872906
 H   -2.419797   -0.429796   -0.346116
 H   -1.863843   -0.480678    1.273728
 H    2.629721    0.328381    0.945802
 H    1.865308    0.618975   -0.466719
}
memory 20GB
set_num_threads(5)
psi4_io.set_default_path("/scratch/liuchw/Psi4-25_27_Index_0-farH_in17")
set freeze_core True
E, wfn = energy('wb97x-d/6-311+G*',return_wfn=True)
oeprop(wfn,"WIBERG_LOWDIN_INDICES")
clean()
