molecule { 
1 1
H -0.629170742012 -0.668177243782 -0.464172182973
N 0.000041163373 -0.000018505242 0.000024656053
H -0.486161057204 0.431583579298 0.796874202910
H 0.277328732592 0.730562064628 -0.668704587620
H 0.837431128296 -0.493711281831 0.335659987848
}
memory 8.333333333333334GB
set_num_threads(1)
psi4_io.set_default_path("/scratch/bdw2292/Psi4-74_Index_0-farH_in17")
set freeze_core True
set PROPERTIES_ORIGIN ["COM"]
set cubeprop_tasks ['esp']
E, wfn = properties('mp2/6-311G**',properties=['dipole'],return_wfn=True)
cubeprop(wfn)
fchk(wfn, "74_Index_0-dma.fchk")
clean()
