molecule { 
1 1
 H   -0.650500   -0.680300   -0.451600
 N    0.015600   -0.005300    0.003400
 H   -0.516800    0.445700    0.785200
 H    0.283300    0.754100   -0.664000
 H    0.868300   -0.514200    0.327000
}
set {
  geom_maxiter 400
  g_convergence GAU
  dynamic_level 1
}
memory 8.333333333333334GB
set_num_threads(1)
psi4_io.set_default_path("/scratch/bdw2292/Psi4-74_Index_0-farH_in17")
for _ in range(1):
  try:
    set opt_coordinates both
    optimize('mp2/6-31G*')
    break
  except OptimizationConvergenceError:
    break
  else:
    try:
      set opt_coordinates cartesian
      optimize('mp2/6-31G*')
      break
    except OptimizationConvergenceError:
      pass
clean()
