molecule { 
1 1
H         -9.27360       -0.88310       -0.48290
N         -9.11910        0.13520       -0.32450
H         -8.12270        0.31210       -0.19710
H         -9.62620        0.43030        0.50990
H         -9.45720        0.65990       -1.13120
}
memory 100GB
set_num_threads(12)
psi4_io.set_default_path("/scratch/bdw2292/Psi4-farH_in17")
set maxiter 500
set freeze_core True
set PROPERTIES_ORIGIN ["COM"]
set cubeprop_tasks ['esp']
E, wfn = properties('hf/MINIX',properties=['dipole'],return_wfn=True)
cubeprop(wfn)
fchk(wfn, "farH_in17-esp_frag.fchk")
oeprop(wfn,"WIBERG_LOWDIN_INDICES","MULLIKEN_CHARGES")
clean()
