molecule { 
0 1
 Cl                 -1.3216509    -1.2809349     0.3222521
 Cl                 -0.8136453     1.3984708    -0.6254683
 Cl                  0.5982673    -0.8387328    -1.7959308
 Cl                  1.1940644     0.0026420     0.9073311
  C                 -0.0850511    -0.1807108    -0.3019604
--
0 1
  O                 -1.1803466     0.5316611     4.1072867
  H                 -1.2398496    -0.3985863     4.3240083
  H                 -0.6286988     0.6245912     3.3305193
}
memory 15GB
set_num_threads(4)
psi4_io.set_default_path("/scratch/bdw2292/Psi4-CCl4")
set maxiter 500
set freeze_core True
set PROPERTIES_ORIGIN ["COM"]
e_dim= energy('mp2/aug-cc-pV[TQ]Z',bsse_type='cp')

psi4.print_out('CP Energy = %10.6f' % (e_dim))
clean()
