molecule { 
0 1
 Cl                 -1.2107509    -0.8798622     2.0388667
 Cl                 -1.2016718     1.2595512     0.0928711
 Cl                 -0.4324728    -1.4106835    -0.6944078
 Cl                  1.2946898     0.1437838     1.0222648
  C                 -0.3884123    -0.2223763     0.6163801
--
0 1
 Cl                  1.9365088     1.4403638    -3.2573747
 Cl                  2.0969424     3.4332114    -5.3409381
 Cl                  2.7427943     0.6765073    -5.9239678
 Cl                  4.5133371     2.2579258    -4.2747045
  C                  2.8226395     1.9520056    -4.6997387
}
memory 15GB
set_num_threads(4)
psi4_io.set_default_path("/scratch/bdw2292/Psi4-CCl4")
set maxiter 500
set freeze_core True
set PROPERTIES_ORIGIN ["COM"]
e_dim= energy('mp2/aug-cc-pV[TQ]Z',bsse_type='cp')

psi4.print_out('CP Energy = %10.6f' % (e_dim))
clean()
