molecule { 
0 1
 Cl                 -0.9834540    -0.5863909     1.9222969
 Cl                 -1.0203298     1.3185487    -0.2497215
 Cl                 -0.3649296    -1.4476266    -0.7655753
 Cl                  1.4944115     0.2308771     0.6813521
  C                 -0.2163540    -0.1195090     0.3969557
--
0 1
  O                  1.8461706     0.9724409    -3.6010786
  H                  1.1315028     0.3391869    -3.5299659
  H                  1.7712248     1.4200979    -4.4436706
}
memory 15GB
set_num_threads(4)
psi4_io.set_default_path("/scratch/bdw2292/Psi4-CCl4")
set maxiter 500
set freeze_core True
set PROPERTIES_ORIGIN ["COM"]
e_dim= energy('mp2/aug-cc-pV[TQ]Z',bsse_type='cp')

psi4.print_out('CP Energy = %10.6f' % (e_dim))
clean()
