molecule { 
0 1
 Cl                 -1.2107509    -0.8798622     2.0388667
 Cl                 -1.2016718     1.2595512     0.0928711
 Cl                 -0.4324728    -1.4106835    -0.6944078
 Cl                  1.2946898     0.1437838     1.0222648
  C                 -0.3884123    -0.2223763     0.6163801
--
0 1
 Cl                  1.1615351     0.8861171    -1.9661231
 Cl                  1.3219687     2.8789647    -4.0496866
 Cl                  1.9678207     0.1222606    -4.6327162
 Cl                  3.7383634     1.7036791    -2.9834529
  C                  2.0476658     1.3977589    -3.4084872
}
memory 15GB
set_num_threads(4)
psi4_io.set_default_path("/scratch/bdw2292/Psi4-CCl4")
set maxiter 500
set freeze_core True
set PROPERTIES_ORIGIN ["COM"]
e_dim= energy('mp2/aug-cc-pV[TQ]Z',bsse_type='cp')

psi4.print_out('CP Energy = %10.6f' % (e_dim))
clean()
