molecule { 
0 1
H 1.276474929224 1.009101292933 -0.465830600240
H 0.839109125508 1.119439746819 1.243355103877
C 0.779343471060 0.490000657521 0.356539012741
S 1.596324166574 -1.115365588707 0.672376457340
C 3.153444252345 -0.526577192717 0.984660077499
N 4.254605557671 -0.146078970870 1.199990035258
C -1.828375356395 -1.373070561872 -1.469133033998
O -2.849840167210 -1.424485996862 -0.779955741037
N -0.764888802335 -0.579901516681 -1.192962156879
H 0.008981791363 -0.560785405938 -1.848154958285
C -0.677045275502 0.225766072989 0.017757489231
H -1.165749914863 -0.345932583312 0.817863600082
C -1.406580185145 1.578319642297 -0.110151927064
O -0.843652534630 2.637338004825 0.165295359565
N -2.692166124434 1.473808629627 -0.520269267775
H -1.695194873813 -1.979038002477 -2.379336197250
H -3.150213508193 0.568366540803 -0.561972898369
H -3.246431165736 2.320247481409 -0.530845197414
}
memory 50GB
set_num_threads(12)
psi4_io.set_default_path("/scratch/bdw2292/Psi4-ModifiedRes")
set maxiter 500
set freeze_core True
set PROPERTIES_ORIGIN ["COM"]
set cubeprop_tasks ['esp']
set basis aug-cc-pVTZ 
E, wfn = properties('mp2',properties=['dipole'],return_wfn=True)
cubeprop(wfn)
fchk(wfn, "ModifiedRes-esp.fchk")
oeprop(wfn,"GRID_ESP","WIBERG_LOWDIN_INDICES","MULLIKEN_CHARGES")
clean()
