%RWF=/scratch/bdw2292/Gau-ModifiedRes/,254GB
%Nosave
%Chk=ModifiedRes-opt_1.chk
%Mem=50GB
%Nproc=12
#P opt=(ModRedundant,maxcycles=400,Loose) MP2/6-31G* MaxDisk=254GB 

ModifiedRes Gaussian OPT Calculation on node74.bme.utexas.edu

0 1
 H    1.804500    0.760600   -0.238100
 H    1.345900    0.871400    1.469800
 C    1.287100    0.239000    0.576300
 S    2.166500   -1.324200    0.919900
 C    3.684100   -0.662500    1.255700
 N    4.720800   -0.193300    1.475000
 C   -1.428200   -1.561400   -1.280500
 O   -2.404900   -1.626000   -0.546900
 N   -0.314800   -0.807400   -1.026800
 H    0.339600   -0.655000   -1.784600
 C   -0.180500   -0.007400    0.197600
 H   -0.691500   -0.531100    1.016600
 C   -0.900100    1.347700    0.029400
 O   -0.386300    2.431500    0.288500
 N   -2.209800    1.278500   -0.355500
 H   -1.370100   -2.082700   -2.250500
 H   -2.709300    0.391000   -0.318900
 H   -2.753000    2.131200   -0.348500

11 3 4 5 F
4 3 11 9 F
7 9 11 3 F
3 11 13 14 F

