molecule { 
0 1
C 1.994301505923 -0.211658162718 -0.070296222764
N 0.854903800519 0.202013950616 -0.741037545898
C -0.415939995537 0.072106546847 -0.110302560673
C -0.821392755842 -1.156860426859 0.421217566511
C 0.922958378054 0.996407193685 -1.962907062903
C -1.279785269085 1.170915818145 -0.059433328715
C -2.079643554192 -1.272914133620 1.006004313592
C -2.948028257278 -0.181318167235 1.050856279041
C -2.543439866185 1.039792063826 0.514644033957
H -0.148669277917 -2.005268826405 0.383369382297
H -0.960430504540 2.133311974746 -0.450050299208
C 3.316196227787 0.070590793488 -0.754926217849
O 1.947668613211 -0.791803900165 1.013989340357
H -0.034319444208 0.909822433738 -2.477603531360
H 1.124708955613 2.057211137741 -1.771405242654
H 1.698373899559 0.608514206891 -2.623249884001
H -2.387577754466 -2.229719447638 1.419821763945
H -3.207910137145 1.899427732345 0.549243744584
H 3.408947266845 -0.490322372343 -1.689541664875
H 3.444699225443 1.131763109849 -0.983577297371
H -3.930916271418 -0.281514763374 1.503392329719
H 4.101975619080 -0.249206572024 -0.071944689464
no_reorient
}
memory 8.166666666666666GB
set_num_threads(2)
psi4_io.set_default_path("/scratch/bdw2292/Psi4-3_24_Index_0-farH_in17")
set freeze_core True
set PROPERTIES_ORIGIN ["COM"]
set cubeprop_tasks ['esp']
set basis 6-311G** 
E, wfn = properties('mp2',properties=['dipole'],return_wfn=True)
cubeprop(wfn)
fchk(wfn, "3_24_Index_0-dma.fchk")
clean()
