molecule { 
0 1
C 2.296014985008 0.249828033104 0.498304662735
N 1.095676911636 -0.29516896565 0.89301861312
C -0.103981757687 -0.097134991782 0.157468980502
C -0.088652939268 -0.060822875671 -1.24368966876
C 1.02364825626 -0.968027906624 2.183086294109
C -1.322384901342 0.012555024424 0.839178058435
C -2.510268253188 0.169747445889 0.12757379881
C -2.497645186224 0.218399338615 -1.264688390972
C -1.282354394992 0.107960268267 -1.940314135934
H -1.351746096459 -0.004237384765 1.923849654708
H 0.849410213948 -0.144729949855 -1.776125983795
O 2.500804163878 0.912910325717 -0.511229275929
H 2.032201975218 -1.249772873101 2.489820180483
H 0.419640770094 -1.872920670756 2.090425067777
H 0.593914673663 -0.329937018813 2.961727219231
H -3.448350424797 0.255537991786 0.670025156172
H -1.259217486776 0.137897407082 -3.02662490958
H -3.42437192343 0.344697880346 -1.817755446382
H 3.10134208868 0.012006958794 1.216534294184
}
memory 20GB
set_num_threads(5)
psi4_io.set_default_path("/scratch/liuchw/Psi4-3_24_Index_0-farH_in17")
set maxiter 500
set freeze_core True
set PROPERTIES_ORIGIN ["COM"]
set cubeprop_tasks ['esp']
set basis aug-cc-pVTZ 
E, wfn = properties('mp2',properties=['dipole','GRID_ESP','WIBERG_LOWDIN_INDICES','MULLIKEN_CHARGES'],return_wfn=True)
cubeprop(wfn)
fchk(wfn, "3_24_Index_0-esp.fchk")
clean()
