%RWF=/scratch/liuchw/Gau-3_24_Index_0-farH_in17/,1267GB
%Nosave
%Chk=3_24_Index_0-opt_1.chk
%Mem=20GB
%Nproc=5
#P opt=(ModRedundant,maxcycles=400,Loose) MP2/6-31G* MaxDisk=1267GB 

3_24_Index_0 Gaussian OPT Calculation on node165.bme.utexas.edu

0 1
 C    4.207900   -0.750700    0.463500
 N    2.967700   -1.225900    0.938300
 C    1.746200   -1.050800    0.182500
 C    1.741100   -0.912600   -1.209900
 C    2.836100   -1.830700    2.266900
 C    0.496400   -1.040200    0.823600
 C   -0.699000   -0.876100    0.106100
 C   -0.690300   -0.693300   -1.276900
 C    0.545700   -0.746700   -1.926200
 H    0.405700   -1.131600    1.901500
 H    2.653700   -0.969700   -1.794500
 O    4.378600   -0.195400   -0.626700
 H    3.761900   -2.313800    2.585000
 H    2.072800   -2.615500    2.262000
 H    2.582700   -1.048300    2.988800
 H   -1.635600   -0.881500    0.655300
 H    0.596700   -0.665300   -3.009300
 H   -1.563600   -0.525000   -1.800500
 H    5.087000   -0.884300    1.111000


