molecule { 
0 1
C          4.20790       -0.75070        0.46350
N          2.96770       -1.22590        0.93830
C          1.74620       -1.05080        0.18250
C          1.74110       -0.91260       -1.20990
C          2.83610       -1.83070        2.26690
C          0.49640       -1.04020        0.82360
C         -0.69900       -0.87610        0.10610
C         -0.69030       -0.69330       -1.27690
C          0.54570       -0.74670       -1.92620
H          0.40570       -1.13160        1.90150
H          2.65370       -0.96970       -1.79450
C          5.41700       -0.91200        1.42550
O          4.37860       -0.19540       -0.62670
H          3.76190       -2.31380        2.58500
H          2.07280       -2.61550        2.26200
H          2.58270       -1.04830        2.98880
H         -1.63560       -0.88150        0.65530
H          0.59670       -0.66530       -3.00930
H          5.63850       -1.98490        1.46880
H          5.16110       -0.54490        2.42510
H         -1.56360       -0.52500       -1.80050
H          6.25950       -0.35070        1.07910
}
memory 208GB
set_num_threads(51)
psi4_io.set_default_path("/scratch/liuchw/Psi4-farH_in17")
set maxiter 500
set freeze_core True
set PROPERTIES_ORIGIN ["COM"]
set cubeprop_tasks ['esp']
set basis MINIX 
E, wfn = properties('hf',properties=['dipole','WIBERG_LOWDIN_INDICES','MULLIKEN_CHARGES'],return_wfn=True)
cubeprop(wfn)
fchk(wfn, "farH_in17-esp_frag.fchk")
clean()
