molecule { 
0 1
C          0.76840       -0.39010        0.07510
C          0.81870        0.79670        0.73960
N          2.01500        1.48570        1.02620
H          2.04670        2.35900        1.59500
C          3.32760        1.04510        0.55700
C         -0.38080        1.37730        1.15150
C         -0.45250       -0.99130       -0.17810
C         -1.58120        0.75890        0.88810
C         -1.67290       -0.44230        0.21710
H          1.69470       -0.88110       -0.25600
H         -0.33620        2.31250        1.67300
H         -0.49600       -1.93920       -0.70890
H         -2.48410        1.26410        1.24600
N         -2.88880       -1.10540       -0.07100
C          3.53340        1.16240       -0.86330
C          3.87280        0.15870       -1.73820
C          3.35530        2.44010       -1.39440
C          4.03720        0.37270       -3.08890
C          3.52170        2.63130       -2.72740
C          3.85900        1.63490       -3.60150
H          4.01560       -0.83530       -1.35160
H          3.08980        3.27710       -0.76290
H          4.30510       -0.43950       -3.75400
H          3.38170        3.62370       -3.13930
H          3.98460        1.81640       -4.66570
H          3.44930        0.01690        0.82690
H          4.04440        1.69140        1.01890
H         -2.87930       -1.96260       -0.55510
H         -3.74450       -0.70970        0.21260
}
memory 100GB
set_num_threads(12)
psi4_io.set_default_path("/scratch/bdw2292/Psi4-farH_in17")
set maxiter 500
set freeze_core True
set PROPERTIES_ORIGIN ["COM"]
set cubeprop_tasks ['esp']
E, wfn = properties('hf/MINIX',properties=['dipole'],return_wfn=True)
cubeprop(wfn)
fchk(wfn, "farH_in17-esp_frag.fchk")
oeprop(wfn,"WIBERG_LOWDIN_INDICES","MULLIKEN_CHARGES")
clean()
