molecule { 
0 1
C          7.86250       -0.64920        1.54090
N          6.60930       -0.19800        0.91940
C          5.41700       -0.91200        1.42550
C          4.20790       -0.75070        0.46350
C          6.49030        1.26440        0.98430
H          5.63850       -1.98490        1.46880
H          5.16110       -0.54490        2.42510
N          2.96770       -1.22590        0.93830
O          4.37860       -0.19540       -0.62670
C          7.57970        1.96400        0.13400
H          6.57290        1.59800        2.02760
H          5.51790        1.62350        0.63090
C          9.07360        0.29770        1.30540
H          8.11140       -1.63500        1.12980
H          7.74260       -0.77830        2.62420
H          7.81730        2.94410        0.56150
H          7.25290        2.08490       -0.90420
H          9.99430       -0.27830        1.16640
H          9.19500        0.98920        2.14700
H          2.91160       -1.65890        1.82070
H          2.15810       -1.12460        0.38730
H          8.45410        1.34730        0.14380
H          8.87980        0.86250        0.41750
}
memory 208GB
set_num_threads(51)
psi4_io.set_default_path("/scratch/liuchw/Psi4-farH_in17")
set maxiter 500
set freeze_core True
set PROPERTIES_ORIGIN ["COM"]
set cubeprop_tasks ['esp']
set basis MINIX 
E, wfn = properties('hf',properties=['dipole','WIBERG_LOWDIN_INDICES','MULLIKEN_CHARGES'],return_wfn=True)
cubeprop(wfn)
fchk(wfn, "farH_in17-esp_frag.fchk")
clean()
