molecule { 
0 1
 C   -0.641898   -0.302755    0.285195
 N    0.462493   -0.854211    1.003193
 C    1.729921   -0.441164    0.646873
 C    1.960373    1.050594    0.865755
 C    0.289212   -2.280200    1.267388
 O    2.654321   -1.197150    0.432816
 C   -1.717620    0.227944    0.984152
 C   -2.842346    0.669166   -1.088966
 C   -2.815032    0.712777    0.295121
 C   -1.770678    0.136656   -1.785713
 C   -0.673677   -0.357141   -1.102450
 H    1.270349   -2.747213    1.321952
 H   -0.303258   -2.766789    0.490166
 H   -0.226417   -2.396274    2.222201
 N    3.253016    1.528267    0.414051
 H    1.890619    1.227969    1.945116
 H    1.171925    1.655526    0.406209
 H   -1.684081    0.258257    2.062270
 H   -3.650709    1.126472    0.839604
 H   -1.790337    0.098845   -2.864715
 H    0.165375   -0.778829   -1.637665
 H    3.961474    0.888956    0.773782
 H   -3.699309    1.048326   -1.624808
 H    3.316277    1.398973   -0.594334
}
memory 20GB
set_num_threads(5)
psi4_io.set_default_path("/scratch/liuchw/Psi4-3_25_Index_0_GrowFragment_3-farH_in17")
set freeze_core True
E, wfn = energy('wb97x-d/6-311+G*',return_wfn=True)
oeprop(wfn,"WIBERG_LOWDIN_INDICES")
clean()
