molecule { 
0 1
 C    1.733314    0.118837   -0.207481
 N    0.691294    0.576315    0.655401
 C   -0.700282    0.479129    0.643021
 C   -1.296967   -0.394926    1.519592
 H    0.996316    0.359442    1.603479
 C   -1.562234    1.064303   -0.432282
 C   -2.698316   -0.782974    1.659165
 N   -1.507180   -1.889837    3.219625
 C   -0.563521   -1.115141    2.581409
 C   -2.779090   -1.688064    2.656864
 C   -2.645161    1.865259   -0.039847
 C   -1.533331    0.608806   -1.754900
 C   -3.588655    2.303905   -0.963490
 C   -2.476541    1.043861   -2.682065
 C   -3.498711    1.906232   -2.294978
 C    2.950047   -0.194718    0.420118
 C    1.726454    0.170792   -1.602163
 C    4.064700   -0.570010   -0.310411
 C    2.850179   -0.193486   -2.340438
 C    4.036708   -0.581770   -1.712801
 H   -1.286192   -2.486862    3.992606
 O    0.648041   -1.040176    2.906062
 H   -2.726652    2.167153    0.995702
 H   -0.816996   -0.139382   -2.051555
 H   -4.398840    2.942442   -0.638805
 H   -2.426636    0.682930   -3.700250
 H   -4.230879    2.242334   -3.016137
 H    2.997789   -0.204985    1.501237
 H    0.876706    0.555215   -2.134679
 H    4.969012   -0.859777    0.209222
 H    2.807846   -0.142842   -3.421619
 N    5.145807   -0.999313   -2.444747
 H   -3.507423   -0.456015    1.031944
 H   -3.628937   -2.237770    3.019470
 H    6.063262   -0.864650   -2.064436
 H    5.084903   -1.017568   -3.444930
}
memory 8.166666666666666GB
set_num_threads(2)
psi4_io.set_default_path("/scratch/bdw2292/Psi4-1_7_Index_0_GrowFragment_0-farH_in17")
set freeze_core True
E, wfn = energy('wb97x-d/6-311+G*',return_wfn=True)
oeprop(wfn,"WIBERG_LOWDIN_INDICES")
clean()
