molecule { 
0 1
 C    1.870116   -0.100052   -0.408219
 N    0.589671    0.277418   -0.892786
 C   -0.625928    0.339553   -0.252787
 C   -0.807018    0.290596    1.106236
 H    0.570017    0.558294   -1.859178
 C   -1.758925    0.431596   -1.214614
 C    0.160745    0.541323    2.176360
 N   -1.817366    0.070932    3.133373
 C   -2.096611   -0.012713    1.772504
 C   -0.478958    0.413863    3.357016
 C   -2.752481    1.401162   -1.054712
 C   -1.815889   -0.431854   -2.314192
 C   -3.781425    1.509089   -1.981395
 C   -2.852773   -0.328472   -3.238018
 C   -3.835093    0.644469   -3.074349
 C    3.002036    0.483821   -0.980313
 C    2.043960   -1.140200    0.509314
 C    4.278588    0.079963   -0.611578
 C    3.318077   -1.544862    0.880742
 C    4.459894   -0.945500    0.326913
 H   -2.513182   -0.109453    3.830099
 O   -3.212242   -0.331244    1.314718
 H   -2.714647    2.060839   -0.199989
 H   -1.064766   -1.203096   -2.426474
 H   -4.546885    2.260818   -1.848010
 H   -2.898143   -1.011743   -4.075082
 H   -4.642101    0.725897   -3.789901
 H    2.884152    1.283794   -1.700909
 H    1.182305   -1.631006    0.935830
 H    5.141768    0.570242   -1.042641
 H    3.430291   -2.348176    1.597972
 N    5.736027   -1.318085    0.733798
 H    1.185690    0.836165    2.051472
 H   -0.107076    0.562936    4.355336
 H    6.504270   -1.219260    0.097709
 H    5.833012   -2.034673    1.428259
}
memory 8.166666666666666GB
set_num_threads(2)
psi4_io.set_default_path("/scratch/bdw2292/Psi4-1_7_Index_0_GrowFragment_0-farH_in17")
set freeze_core True
E, wfn = energy('wb97x-d/6-311+G*',return_wfn=True)
oeprop(wfn,"WIBERG_LOWDIN_INDICES")
clean()
