molecule { 
0 1
 C    1.563244   -0.685866   -0.208288
 N    0.440541   -0.753577    0.660620
 C   -0.698017   -0.005776    0.791106
 C   -1.900411   -0.671559    0.947426
 H    0.255377   -1.721531    0.939620
 C   -0.758769    1.446996    0.450848
 C   -3.263994   -0.161298    1.003081
 N   -3.338415   -2.405004    1.176486
 C   -1.993272   -2.124732    1.085738
 C   -4.094949   -1.220327    1.123881
 C   -1.307805    2.345128    1.372137
 C   -0.524381    1.885341   -0.858543
 C   -1.537749    3.673010    1.020196
 C   -0.759073    3.210200   -1.211671
 C   -1.257691    4.110700   -0.271451
 C    2.176233   -1.907024   -0.521696
 C    2.212573    0.491174   -0.592026
 C    3.325984   -1.955609   -1.293716
 C    3.371138    0.444213   -1.359755
 C    3.945794   -0.776873   -1.733797
 H   -3.694838   -3.335528    1.274670
 O   -1.062893   -2.981447    1.125975
 H   -1.540839    2.000563    2.370654
 H   -0.177281    1.185110   -1.604794
 H   -1.945947    4.358459    1.750257
 H   -0.570479    3.533671   -2.226201
 H   -1.442007    5.139453   -0.549151
 H    1.714035   -2.829041   -0.192055
 H    1.843625    1.450627   -0.269231
 H    3.748502   -2.915363   -1.561856
 H    3.851462    1.371732   -1.646136
 N    5.074541   -0.827406   -2.546392
 H   -3.559404    0.868706    0.915606
 H   -5.168729   -1.253217    1.162787
 H    5.703123   -1.604179   -2.464993
 H    5.482790    0.033071   -2.859698
}
memory 8.166666666666666GB
set_num_threads(2)
psi4_io.set_default_path("/scratch/bdw2292/Psi4-1_7_Index_0_GrowFragment_0-farH_in17")
set freeze_core True
E, wfn = energy('wb97x-d/6-311+G*',return_wfn=True)
oeprop(wfn,"WIBERG_LOWDIN_INDICES")
clean()
