molecule { 
0 1
 C    1.599761   -0.537127   -0.082055
 N    0.311704   -1.013266    0.276094
 C   -0.787351   -0.245161    0.430040
 C   -1.609936   -0.497287    1.524448
 H    0.137940   -2.021152    0.463772
 C   -1.255143    0.559870   -0.741082
 C   -2.241072    0.379968    2.477312
 N   -2.835859   -1.750260    2.932518
 C   -1.997801   -1.869778    1.848959
 C   -2.975362   -0.408631    3.308968
 C   -1.558537    1.936149   -0.592151
 C   -1.384093   -0.038125   -2.020716
 C   -1.981223    2.691343   -1.694137
 C   -1.806505    0.721970   -3.119098
 C   -2.107127    2.090609   -2.963479
 C    2.466155   -1.390751   -0.804957
 C    1.947987    0.827122    0.080048
 C    3.698228   -0.910693   -1.272289
 C    3.183077    1.296171   -0.390454
 C    4.092079    0.436317   -1.059272
 H   -3.264884   -2.554017    3.367749
 O   -1.635791   -2.932321    1.293265
 H   -1.456681    2.409069    0.385737
 H   -1.154372   -1.097908   -2.146615
 H   -2.212303    3.750524   -1.567296
 H   -1.903025    0.250970   -4.098894
 H   -2.435200    2.681319   -3.820785
 H    2.154423   -2.421236   -0.989997
 H    1.248430    1.501437    0.576706
 H    4.353854   -1.596161   -1.814030
 H    3.434023    2.348233   -0.237547
 N    5.346463    0.918195   -1.523102
 H   -2.164133    1.456134    2.525523
 H   -3.599629   -0.141827    4.150384
 H    6.019919    0.147839   -1.525334
 H    5.736371    1.550966   -0.819353
}
set optking { 
  frozen_dihedral = ("
    1 2 3 4
    16 1 2 3
    2 3 6 11
    18 20 32 35
  ")
}
set {
  geom_maxiter 400
  g_convergence GAU_LOOSE
  dynamic_level 1
}
memory 8.166666666666666GB
set_num_threads(2)
psi4_io.set_default_path("/scratch/bdw2292/Psi4-1_7_Index_0_GrowFragment_0-farH_in17")
for _ in range(1):
  try:
    set opt_coordinates both
    optimize('wb97x-d/6-311G')
    break
  except OptimizationConvergenceError:
    break
  else:
    try:
      set opt_coordinates cartesian
      optimize('wb97x-d/6-311G')
      break
    except OptimizationConvergenceError:
      pass
clean()
