molecule { 
0 1
 C    1.788340   -0.110096    0.094941
 N    0.715927    0.176491    0.992475
 C   -0.609597    0.508485    0.874521
 C   -1.477940   -0.539570    1.188818
 H    0.839783   -0.282761    1.916728
 C   -1.151771    1.540799   -0.069479
 C   -2.547461   -1.158881    0.444897
 N   -2.414755   -2.129966    2.477287
 C   -1.402865   -1.199193    2.493602
 C   -3.092025   -2.109326    1.252466
 C   -2.021629    2.528263    0.462288
 C   -1.087834    1.410149   -1.483229
 C   -2.667042    3.447707   -0.374309
 C   -1.727046    2.334113   -2.320342
 C   -2.507781    3.369519   -1.771381
 C    2.779942   -1.030677    0.531274
 C    1.940835    0.482983   -1.180568
 C    3.839390   -1.394597   -0.312158
 C    2.996013    0.102325   -2.023624
 C    3.966744   -0.844026   -1.611443
 H   -2.599423   -2.731824    3.266733
 O   -0.583558   -1.001648    3.418627
 H   -2.171554    2.577919    1.542985
 H   -0.569694    0.560083   -1.926859
 H   -3.295224    4.227391    0.060032
 H   -1.627449    2.241327   -3.403359
 H   -2.999945    4.093641   -2.422854
 H    2.693191   -1.467073    1.529934
 H    1.274569    1.279264   -1.489153
 H    4.568843   -2.121878    0.051583
 H    3.067224    0.566265   -3.010123
 N    5.031628   -1.224952   -2.472812
 H   -2.873511   -0.912117   -0.555222
 H   -3.915234   -2.786765    1.073257
 H    5.846881   -1.474846   -1.907151
 H    5.358413   -0.398027   -2.979510
}
set optking { 
  frozen_dihedral = ("
    1 2 3 4
    16 1 2 3
    2 3 6 11
    18 20 32 35
  ")
}
set {
  geom_maxiter 400
  g_convergence GAU_LOOSE
  dynamic_level 1
}
memory 8.166666666666666GB
set_num_threads(2)
psi4_io.set_default_path("/scratch/bdw2292/Psi4-1_7_Index_0_GrowFragment_0-farH_in17")
for _ in range(1):
  try:
    set opt_coordinates both
    optimize('wb97x-d/6-311G')
    break
  except OptimizationConvergenceError:
    break
  else:
    try:
      set opt_coordinates cartesian
      optimize('wb97x-d/6-311G')
      break
    except OptimizationConvergenceError:
      pass
clean()
