molecule { 
0 1
 C    1.753591   -0.280689   -0.473333
 N    0.414578   -0.282508   -0.965921
 C   -0.703855    0.289065   -0.452807
 C   -0.997425    0.155707    0.896143
 H    0.305647   -0.397154   -1.983669
 C   -1.825708    0.617450   -1.388640
 C   -1.030705    1.118762    1.966952
 N   -1.635164   -0.902957    2.765570
 C   -1.411613   -1.143619    1.427538
 C   -1.411906    0.441826    3.083636
 C   -2.418794    1.903643   -1.355478
 C   -2.332773   -0.351054   -2.293209
 C   -3.469161    2.222318   -2.227106
 C   -3.380858   -0.025790   -3.164667
 C   -3.952996    1.262645   -3.140146
 C    2.803298   -0.350721   -1.427345
 C    2.092410   -0.058802    0.887533
 C    4.143251   -0.267125   -1.023249
 C    3.437336    0.023115    1.279669
 C    4.491065   -0.092873    0.339408
 H   -1.927247   -1.638873    3.392400
 O   -1.540731   -2.242745    0.848082
 H   -2.048811    2.649453   -0.649708
 H   -1.905937   -1.356311   -2.302168
 H   -3.910828    3.220003   -2.199983
 H   -3.751991   -0.776199   -3.864786
 H   -4.767072    1.514776   -3.822203
 H    2.548649   -0.469847   -2.483892
 H    1.315257    0.042755    1.637796
 H    4.922767   -0.334190   -1.785728
 H    3.660275    0.183951    2.336939
 N    5.850028   -0.016340    0.749917
 H   -0.785241    2.169305    1.908693
 H   -1.543598    0.792396    4.097921
 H    6.424969   -0.570311    0.110092
 H    5.953676   -0.520553    1.634625
}
set optking { 
  frozen_dihedral = ("
    1 2 3 4
    16 1 2 3
    2 3 6 11
    18 20 32 35
  ")
}
set {
  geom_maxiter 400
  g_convergence GAU_LOOSE
  dynamic_level 1
}
memory 8.166666666666666GB
set_num_threads(2)
psi4_io.set_default_path("/scratch/bdw2292/Psi4-1_7_Index_0_GrowFragment_0-farH_in17")
for _ in range(1):
  try:
    set opt_coordinates both
    optimize('wb97x-d/6-311G')
    break
  except OptimizationConvergenceError:
    break
  else:
    try:
      set opt_coordinates cartesian
      optimize('wb97x-d/6-311G')
      break
    except OptimizationConvergenceError:
      pass
clean()
