molecule { 
0 1
 C    1.710195    0.081961    0.038343
 N    0.696453    0.709041    0.815304
 C   -0.621465    0.624902    0.565854
 C   -1.235776   -0.581602    0.869064
 H    0.858092    0.804453    1.836474
 C   -1.321038    1.735617   -0.157777
 C   -2.018550   -1.497727    0.082076
 N   -1.849706   -2.281040    2.195206
 C   -1.134273   -1.106326    2.228322
 C   -2.371786   -2.514430    0.915112
 C   -2.531257    2.239683    0.384197
 C   -0.783497    2.361806   -1.314203
 C   -3.205830    3.299860   -0.235192
 C   -1.462944    3.422031   -1.930168
 C   -2.679044    3.895174   -1.398489
 C    2.911493   -0.312747    0.678861
 C    1.474881   -0.341282   -1.295495
 C    3.896482   -1.012165   -0.033459
 C    2.470329   -1.033885   -2.000349
 C    3.707479   -1.369036   -1.393384
 H   -1.953243   -2.866229    3.011394
 O   -0.525191   -0.622241    3.209858
 H   -2.940627    1.791062    1.291863
 H    0.166086    2.026927   -1.729371
 H   -4.143322    3.665561    0.187270
 H   -1.044361    3.884323   -2.826037
 H   -3.206519    4.720239   -1.880862
 H    3.054645   -0.061832    1.732735
 H    0.511642   -0.137583   -1.763764
 H    4.818983   -1.285098    0.484016
 H    2.270485   -1.325536   -3.033874
 N    4.710831   -2.068178   -2.118061
 H   -2.283967   -1.402128   -0.960411
 H   -2.959692   -3.400798    0.721314
 H    5.630358   -1.816940   -1.746273
 H    4.748040   -1.697337   -3.071221
}
set optking { 
  frozen_dihedral = ("
    1 2 3 4
    16 1 2 3
    2 3 6 11
    18 20 32 35
  ")
}
set {
  geom_maxiter 400
  g_convergence GAU_LOOSE
  dynamic_level 1
}
memory 8.166666666666666GB
set_num_threads(2)
psi4_io.set_default_path("/scratch/bdw2292/Psi4-1_7_Index_0_GrowFragment_0-farH_in17")
for _ in range(1):
  try:
    set opt_coordinates both
    optimize('wb97x-d/6-311G')
    break
  except OptimizationConvergenceError:
    break
  else:
    try:
      set opt_coordinates cartesian
      optimize('wb97x-d/6-311G')
      break
    except OptimizationConvergenceError:
      pass
clean()
