molecule { 
0 1
 H   -1.507591   -0.950385    0.293190
 C   -1.310507    0.069342    0.628977
 O    0.094055    0.289958    0.732848
 C    0.791659    0.141092   -0.379438
 H   -1.720041    0.231563    1.622210
 H   -1.749212    0.766883   -0.086862
 O    0.362246   -0.157750   -1.453443
 H    1.854332    0.339390   -0.160219
}
memory 20GB
set_num_threads(5)
psi4_io.set_default_path("/scratch/liuchw/Psi4-35_38_Index_0-farH_in17")
set freeze_core True
E, wfn = energy('wb97x-d/6-311+G*',return_wfn=True)
oeprop(wfn,"WIBERG_LOWDIN_INDICES")
clean()
