molecule { 
0 1
 C   -0.658782    1.365965   -0.052375
 C   -0.800834    0.010006    0.158021
 N    0.241252   -0.754175    0.742026
 C    1.671165   -0.793180    0.578867
 H   -0.025414   -0.979120    1.701063
 C   -0.408831    2.383214    0.953330
 N   -0.565911    3.412815   -1.050676
 C   -0.754227    2.077207   -1.375689
 C   -0.361670    3.581275    0.311934
 C   -2.052542   -0.744861   -0.100718
 C   -3.291966   -0.308985    0.431063
 C   -2.008816   -1.960495   -0.827108
 C   -4.457634   -1.055914    0.216355
 C   -3.175787   -2.704174   -1.040028
 C   -4.408105   -2.255718   -0.522479
 C    2.414225   -1.742707    1.327018
 C    2.383397    0.042623   -0.318819
 C    3.808036   -1.824442    1.208821
 C    3.778146   -0.045189   -0.432965
 C    4.523844   -0.969993    0.337082
 H   -0.584593    4.134973   -1.756494
 O   -0.945747    1.678191   -2.523426
 H   -3.338115    0.612476    1.013699
 H   -1.055795   -2.315681   -1.221622
 H   -5.404483   -0.704059    0.628729
 H   -3.124333   -3.634534   -1.607263
 H   -5.317269   -2.835826   -0.690243
 H    1.906297   -2.429968    2.008411
 H    1.864280    0.765461   -0.947513
 H    4.339459   -2.569070    1.805664
 H    4.286845    0.616941   -1.137288
 N    5.942925   -1.056959    0.219578
 H   -0.280936    2.213623    2.012611
 H   -0.196891    4.573681    0.708795
 H    6.402753   -1.391504    1.066970
 H    6.381821   -0.183242   -0.072698
}
set optking { 
  frozen_dihedral = ("
    1 2 3 4
    10 2 3 4
    1 2 10 11
    1 2 10 12
    3 2 10 11
    16 4 3 2
    18 20 32 35
  ")
}
set {
  geom_maxiter 400
  g_convergence GAU_LOOSE
  dynamic_level 1
}
memory 8.333333333333334GB
set_num_threads(1)
psi4_io.set_default_path("/scratch/bdw2292/Psi4-7_1_Index_0_GrowFragment_0-farH_in17")
for _ in range(1):
  try:
    set opt_coordinates both
    optimize('wb97x-d/6-311G')
    break
  except OptimizationConvergenceError:
    break
  else:
    try:
      set opt_coordinates cartesian
      optimize('wb97x-d/6-311G')
      break
    except OptimizationConvergenceError:
      pass
clean()
