molecule { 
0 1
 C   -0.714046    1.498799   -0.195090
 C   -0.762204    0.242049    0.367892
 N    0.306078   -0.121894    1.228443
 C    1.649354   -0.437267    0.826804
 H   -0.015816   -0.758585    1.957759
 C   -0.795407    2.774359    0.493898
 N   -0.583455    3.187961   -1.717328
 C   -0.581515    1.801201   -1.662907
 C   -0.710758    3.746752   -0.452855
 C   -1.892373   -0.716563    0.216628
 C   -3.211229   -0.269448    0.490882
 C   -1.700197   -2.069555   -0.155591
 C   -4.298729   -1.145203    0.388266
 C   -2.790140   -2.943944   -0.256188
 C   -4.095966   -2.488017    0.013567
 C    1.980015   -1.469507   -0.081708
 C    2.703373    0.330901    1.376351
 C    3.316948   -1.732182   -0.413434
 C    4.037817    0.066375    1.041220
 C    4.376589   -0.977833    0.146650
 H   -0.499561    3.682184   -2.593996
 O   -0.491912    1.079960   -2.657253
 H   -3.379617    0.767100    0.787960
 H   -0.699668   -2.440648   -0.365942
 H   -5.304033   -0.780269    0.603438
 H   -2.620904   -3.982956   -0.543100
 H   -4.944021   -3.170160   -0.066219
 H    1.201000   -2.069892   -0.547703
 H    2.479606    1.144045    2.070138
 H    3.531496   -2.535404   -1.121914
 H    4.821124    0.684519    1.485248
 N    5.735098   -1.244056   -0.197180
 H   -0.900045    2.917371    1.559573
 H   -0.729802    4.822703   -0.345306
 H    5.908608   -2.216152   -0.454350
 H    6.400061   -0.968105    0.525982
}
set optking { 
  frozen_dihedral = ("
    16 4 3 2
    1 2 10 11
    1 2 10 12
    3 2 10 11
    1 2 3 4
    10 2 3 4
    18 20 32 35
  ")
}
set {
  geom_maxiter 400
  g_convergence GAU_LOOSE
  dynamic_level 1
}
memory 8.333333333333334GB
set_num_threads(1)
psi4_io.set_default_path("/scratch/bdw2292/Psi4-7_1_Index_0_GrowFragment_0-farH_in17")
for _ in range(1):
  try:
    set opt_coordinates both
    optimize('wb97x-d/6-311G')
    break
  except OptimizationConvergenceError:
    break
  else:
    try:
      set opt_coordinates cartesian
      optimize('wb97x-d/6-311G')
      break
    except OptimizationConvergenceError:
      pass
clean()
