molecule { 
0 1
 C   -0.682475    1.556853    0.235624
 C   -0.799197    0.183130    0.381279
 N    0.143164   -0.493281    1.202493
 C    1.520920   -0.737458    0.874272
 H   -0.281642   -1.305130    1.651892
 C    0.288531    2.430614    0.879306
 N   -1.004536    3.722939   -0.439142
 C   -1.530758    2.454314   -0.632393
 C    0.058543    3.698978    0.449275
 C   -1.891242   -0.666318   -0.172502
 C   -3.250297   -0.331876    0.055953
 C   -1.595396   -1.871440   -0.859684
 C   -4.277530   -1.160951   -0.411414
 C   -2.625165   -2.696478   -1.328671
 C   -3.972418   -2.346071   -1.110046
 C    2.464416   -0.856106    1.921887
 C    1.981056   -0.860585   -0.460013
 C    3.817798   -1.091319    1.645356
 C    3.335744   -1.097362   -0.730787
 C    4.286430   -1.208713    0.313695
 H   -1.384658    4.532037   -0.908919
 O   -2.491590    2.237502   -1.372454
 H   -3.501889    0.580817    0.597507
 H   -0.555936   -2.161371   -1.018449
 H   -5.316452   -0.883942   -0.227283
 H   -2.376058   -3.616352   -1.859706
 H   -4.774137   -2.989403   -1.476487
 H    2.141505   -0.766539    2.961380
 H    1.286877   -0.767952   -1.297369
 H    4.513492   -1.185682    2.482071
 H    3.650614   -1.194590   -1.772204
 N    5.664646   -1.450467    0.035920
 H    1.058141    2.119646    1.571503
 H    0.568591    4.619062    0.698942
 H    6.294022   -1.081100    0.749489
 H    5.962650   -1.106757   -0.877685
}
set optking { 
  frozen_dihedral = ("
    16 4 3 2
    1 2 10 11
    1 2 10 12
    3 2 10 11
    1 2 3 4
    10 2 3 4
    18 20 32 35
  ")
}
set {
  geom_maxiter 400
  g_convergence GAU_LOOSE
  dynamic_level 1
}
memory 8.333333333333334GB
set_num_threads(1)
psi4_io.set_default_path("/scratch/bdw2292/Psi4-7_1_Index_0_GrowFragment_0-farH_in17")
for _ in range(1):
  try:
    set opt_coordinates both
    optimize('wb97x-d/6-311G')
    break
  except OptimizationConvergenceError:
    break
  else:
    try:
      set opt_coordinates cartesian
      optimize('wb97x-d/6-311G')
      break
    except OptimizationConvergenceError:
      pass
clean()
