molecule { 
0 1
 C   -0.638505    1.262116   -0.314995
 C   -0.778996   -0.089869   -0.090653
 N    0.313326   -0.915889    0.288614
 C    1.750407   -0.825679    0.355058
 H   -0.008012   -1.462108    1.089275
 C   -0.391115    2.290694    0.679504
 N   -0.561234    3.298028   -1.334666
 C   -0.758269    1.959347   -1.643534
 C   -0.352796    3.482035    0.025057
 C   -2.096563   -0.779575   -0.131565
 C   -3.199987   -0.293961    0.614323
 C   -2.246310   -1.976355   -0.875145
 C   -4.422817   -0.977132    0.598343
 C   -3.469858   -2.656831   -0.888575
 C   -4.566186   -2.161032   -0.153784
 C    2.467516   -1.974738    0.783763
 C    2.505388    0.324310    0.008965
 C    3.865056   -1.964013    0.882446
 C    3.904526    0.327592    0.106458
 C    4.615717   -0.810531    0.555959
 H   -0.578673    4.011070   -2.049728
 O   -0.987140    1.549249   -2.780489
 H   -3.095285    0.615982    1.207207
 H   -1.398851   -2.365156   -1.441707
 H   -5.262858   -0.588161    1.175874
 H   -3.567823   -3.574489   -1.470421
 H   -5.519389   -2.692146   -0.165565
 H    1.934047   -2.893125    1.041679
 H    2.022913    1.233121   -0.344703
 H    4.371578   -2.871973    1.217787
 H    4.444907    1.234702   -0.173949
 N    6.038786   -0.802853    0.655359
 H   -0.253247    2.131217    1.739111
 H   -0.187481    4.478626    0.410932
 H    6.401546   -1.439904    1.365257
 H    6.431448    0.126082    0.811141
}
set optking { 
  frozen_dihedral = ("
    1 2 3 4
    10 2 3 4
    1 2 10 11
    1 2 10 12
    3 2 10 11
    16 4 3 2
    18 20 32 35
  ")
}
set {
  geom_maxiter 400
  g_convergence GAU_LOOSE
  dynamic_level 1
}
memory 8.333333333333334GB
set_num_threads(1)
psi4_io.set_default_path("/scratch/bdw2292/Psi4-7_1_Index_0_GrowFragment_0-farH_in17")
for _ in range(1):
  try:
    set opt_coordinates both
    optimize('wb97x-d/6-311G')
    break
  except OptimizationConvergenceError:
    break
  else:
    try:
      set opt_coordinates cartesian
      optimize('wb97x-d/6-311G')
      break
    except OptimizationConvergenceError:
      pass
clean()
