molecule { 
0 1
 C   -0.671751    1.380551   -1.087382
 C   -0.714716    0.036659   -0.768750
 N    0.435023   -0.753522   -1.044443
 C    1.638935   -0.806557   -0.255587
 H    0.666559   -0.676997   -2.040210
 C   -0.758841    2.527721   -0.201588
 N   -0.493403    3.297265   -2.311836
 C   -0.480349    1.920891   -2.478662
 C   -0.649641    3.641283   -0.975405
 C   -1.814868   -0.693341   -0.091283
 C   -2.365566   -0.232515    1.130933
 C   -2.306843   -1.900354   -0.648823
 C   -3.388676   -0.948894    1.764585
 C   -3.328527   -2.614980   -0.011625
 C   -3.877624   -2.143312    1.197885
 C    2.718124   -1.614941   -0.692887
 C    1.797690   -0.086730    0.956244
 C    3.908569   -1.687122    0.043514
 C    2.990439   -0.163316    1.687948
 C    4.070459   -0.968909    1.253066
 H   -0.391855    3.927929   -3.093882
 O   -0.317304    1.351182   -3.562426
 H   -1.990497    0.685145    1.584263
 H   -1.883278   -2.273445   -1.582363
 H   -3.804690   -0.575850    2.701655
 H   -3.697358   -3.539615   -0.457929
 H   -4.675083   -2.700012    1.693092
 H    2.634561   -2.193551   -1.615920
 H    0.993238    0.541960    1.339667
 H    4.719614   -2.312735   -0.335989
 H    3.075723    0.416669    2.609654
 N    5.285796   -1.039260    1.996868
 H   -0.881131    2.502116    0.871255
 H   -0.666937    4.685106   -0.692939
 H    5.784551   -1.921605    1.877960
 H    5.165422   -0.858261    2.993971
}
set optking { 
  frozen_dihedral = ("
    1 2 3 4
    10 2 3 4
    1 2 10 11
    1 2 10 12
    3 2 10 11
    16 4 3 2
    18 20 32 35
  ")
}
set {
  geom_maxiter 400
  g_convergence GAU_LOOSE
  dynamic_level 1
}
memory 8.333333333333334GB
set_num_threads(1)
psi4_io.set_default_path("/scratch/bdw2292/Psi4-7_1_Index_0_GrowFragment_0-farH_in17")
for _ in range(1):
  try:
    set opt_coordinates both
    optimize('wb97x-d/6-311G')
    break
  except OptimizationConvergenceError:
    break
  else:
    try:
      set opt_coordinates cartesian
      optimize('wb97x-d/6-311G')
      break
    except OptimizationConvergenceError:
      pass
clean()
