molecule { 
0 1
 C   -0.620477    1.221942   -0.580677
 C   -0.750342   -0.128251   -0.336995
 N    0.382044   -0.974670   -0.165581
 C    1.784813   -0.831331    0.136077
 H    0.052746   -1.789472    0.353997
 C   -0.508247    2.279481    0.408834
 N   -0.506156    3.238790   -1.635425
 C   -0.639384    1.888767   -1.930016
 C   -0.434423    3.457190   -0.267083
 C   -2.074924   -0.785211   -0.148379
 C   -3.014835   -0.273722    0.781536
 C   -2.393584   -1.967482   -0.862879
 C   -4.242021   -0.919077    0.978812
 C   -3.620273   -2.611974   -0.660262
 C   -4.553078   -2.091126    0.259672
 C    2.576606   -2.010991    0.165308
 C    2.434092    0.396671    0.422238
 C    3.942104   -1.963066    0.476128
 C    3.802140    0.438746    0.728037
 C    4.585347   -0.738823    0.772679
 H   -0.471935    3.935749   -2.365507
 O   -0.759711    1.451768   -3.074242
 H   -2.779669    0.627299    1.349729
 H   -1.675224   -2.373713   -1.577263
 H   -4.954586   -0.509193    1.696109
 H   -3.848158   -3.520752   -1.219229
 H   -5.509989   -2.592391    0.414898
 H    2.126753   -2.981051   -0.060904
 H    1.893181    1.339826    0.415304
 H    4.509322   -2.896601    0.484513
 H    4.260582    1.408221    0.936446
 N    5.976761   -0.690891    1.084498
 H   -0.476448    2.147353    1.481058
 H   -0.332807    4.466154    0.108973
 H    6.328051   -1.545975    1.516615
 H    6.237493    0.106458    1.665613
}
set optking { 
  frozen_dihedral = ("
    1 2 3 4
    10 2 3 4
    1 2 10 11
    1 2 10 12
    3 2 10 11
    16 4 3 2
    18 20 32 35
  ")
}
set {
  geom_maxiter 400
  g_convergence GAU_LOOSE
  dynamic_level 1
}
memory 8.333333333333334GB
set_num_threads(1)
psi4_io.set_default_path("/scratch/bdw2292/Psi4-7_1_Index_0_GrowFragment_0-farH_in17")
for _ in range(1):
  try:
    set opt_coordinates both
    optimize('wb97x-d/6-311G')
    break
  except OptimizationConvergenceError:
    break
  else:
    try:
      set opt_coordinates cartesian
      optimize('wb97x-d/6-311G')
      break
    except OptimizationConvergenceError:
      pass
clean()
