molecule { 
0 1
 C   -0.736017    1.538161   -0.280881
 C   -0.765014    0.324898    0.368549
 N    0.300207    0.017463    1.253252
 C    1.640573   -0.312162    0.849729
 H   -0.015862   -0.600816    2.000794
 C   -1.022972    2.848100    0.274110
 N   -0.517062    3.108650   -1.914240
 C   -0.402995    1.737461   -1.733576
 C   -0.877511    3.748602   -0.734857
 C   -1.870682   -0.665145    0.293195
 C   -3.207995   -0.263629    0.534596
 C   -1.604369   -2.028217    0.012533
 C   -4.249272   -1.198795    0.486812
 C   -2.648208   -2.960314   -0.035111
 C   -3.976894   -2.552287    0.201334
 C    1.944393   -0.915947   -0.396671
 C    2.707525   -0.039566    1.738192
 C    3.264311   -1.257175   -0.723583
 C    4.025077   -0.380461    1.404096
 C    4.332851   -1.008108    0.172190
 H   -0.345966    3.540293   -2.811057
 O   -0.096363    0.946106   -2.629525
 H   -3.426697    0.781004    0.761269
 H   -0.578314   -2.353477   -0.164593
 H   -5.273103   -0.872314    0.674684
 H   -2.425089   -4.005457   -0.254333
 H   -4.789196   -3.280313    0.165074
 H    1.161648   -1.110991   -1.133049
 H    2.509553    0.440170    2.699232
 H    3.457642   -1.719250   -1.694194
 H    4.819758   -0.153397    2.118108
 N    5.675499   -1.353799   -0.164732
 H   -1.296319    3.061553    1.297203
 H   -0.999967    4.823288   -0.727655
 H    5.744100   -2.148209   -0.801598
 H    6.268499   -1.527283    0.647338
}
set optking { 
  frozen_dihedral = ("
    16 4 3 2
    1 2 10 11
    1 2 10 12
    3 2 10 11
    1 2 3 4
    10 2 3 4
    18 20 32 35
  ")
}
set {
  geom_maxiter 400
  g_convergence GAU_LOOSE
  dynamic_level 1
}
memory 8.333333333333334GB
set_num_threads(1)
psi4_io.set_default_path("/scratch/bdw2292/Psi4-7_1_Index_0_GrowFragment_0-farH_in17")
for _ in range(1):
  try:
    set opt_coordinates both
    optimize('wb97x-d/6-311G')
    break
  except OptimizationConvergenceError:
    break
  else:
    try:
      set opt_coordinates cartesian
      optimize('wb97x-d/6-311G')
      break
    except OptimizationConvergenceError:
      pass
clean()
