molecule { 
0 1
 C   -0.683743    1.526911   -0.072429
 C   -0.759301    0.242215    0.420107
 N    0.271363   -0.185943    1.297455
 C    1.613134   -0.494907    0.889817
 H   -0.077137   -0.825488    2.011648
 C   -0.751772    2.762520    0.687031
 N   -0.507144    3.296750   -1.494583
 C   -0.527840    1.909226   -1.519300
 C   -0.641662    3.785264   -0.202215
 C   -1.888184   -0.693984    0.176639
 C   -3.221655   -0.277990    0.420232
 C   -1.656182   -2.022337   -0.254973
 C   -4.289202   -1.164086    0.229480
 C   -2.725036   -2.908076   -0.439068
 C   -4.048206   -2.484964   -0.199353
 C    1.986436   -1.789062    0.458107
 C    2.598722    0.520219    0.904177
 C    3.300721   -2.054089    0.048930
 C    3.911812    0.249492    0.496209
 C    4.294532   -1.044612    0.064476
 H   -0.405307    3.837496   -2.341394
 O   -0.439218    1.244748   -2.551770
 H   -3.417353    0.739363    0.762663
 H   -0.637967   -2.352138   -0.457532
 H   -5.308855   -0.825196    0.418549
 H   -2.526596   -3.928063   -0.771303
 H   -4.880607   -3.175422   -0.345485
 H    1.255091   -2.598727    0.441699
 H    2.338922    1.529855    1.229230
 H    3.549641   -3.063811   -0.284981
 H    4.643725    1.059977    0.514504
 N    5.629392   -1.317455   -0.357803
 H   -0.866495    2.846809    1.758006
 H   -0.646481    4.853433   -0.033695
 H    5.913213   -2.287116   -0.215401
 H    6.325008   -0.702173    0.064961
}
set optking { 
  frozen_dihedral = ("
    16 4 3 2
    1 2 10 11
    1 2 10 12
    3 2 10 11
    1 2 3 4
    10 2 3 4
    18 20 32 35
  ")
}
set {
  geom_maxiter 400
  g_convergence GAU_LOOSE
  dynamic_level 1
}
memory 8.333333333333334GB
set_num_threads(1)
psi4_io.set_default_path("/scratch/bdw2292/Psi4-7_1_Index_0_GrowFragment_0-farH_in17")
for _ in range(1):
  try:
    set opt_coordinates both
    optimize('wb97x-d/6-311G')
    break
  except OptimizationConvergenceError:
    break
  else:
    try:
      set opt_coordinates cartesian
      optimize('wb97x-d/6-311G')
      break
    except OptimizationConvergenceError:
      pass
clean()
