molecule { 
0 1
 C   -1.023706    2.168770    0.256784
 C   -0.416900    1.022743   -0.219029
 N    0.984708    0.896778   -0.015963
 C    1.802613   -0.217594    0.391016
 H    1.452910    1.369501   -0.790974
 C   -0.765910    3.535664   -0.164835
 N   -2.347872    3.598288    1.447012
 C   -2.095997    2.241042    1.312587
 C   -1.571321    4.346020    0.572911
 C   -1.123633   -0.131684   -0.834286
 C   -2.219682   -0.744882   -0.177197
 C   -0.693592   -0.656136   -2.078551
 C   -2.866451   -1.847117   -0.748865
 C   -1.342445   -1.759047   -2.647662
 C   -2.432298   -2.361904   -1.987061
 C    3.197651   -0.003354    0.540782
 C    1.301788   -1.511622    0.683938
 C    4.052838   -1.045666    0.923408
 C    2.161749   -2.549435    1.068850
 C    3.557599   -2.345676    1.183001
 H   -3.024810    3.949834    2.108926
 O   -2.687186    1.370380    1.964728
 H   -2.558875   -0.358621    0.786351
 H    0.152530   -0.198142   -2.592094
 H   -3.706631   -2.305258   -0.225194
 H   -0.996939   -2.150213   -3.605733
 H   -2.936116   -3.222451   -2.430619
 H    3.625505    0.985894    0.359834
 H    0.237078   -1.730375    0.623848
 H    5.120233   -0.835285    1.020921
 H    1.731786   -3.530349    1.283630
 N    4.430447   -3.405912    1.569590
 H   -0.060629    3.849738   -0.921046
 H   -1.669775    5.422951    0.560231
 H    5.378991   -3.305866    1.206894
 H    4.078104   -4.332363    1.326500
}
set optking { 
  frozen_dihedral = ("
    1 2 3 4
    10 2 3 4
    1 2 10 11
    1 2 10 12
    3 2 10 11
    16 4 3 2
    18 20 32 35
  ")
}
set {
  geom_maxiter 400
  g_convergence GAU_LOOSE
  dynamic_level 1
}
memory 8.333333333333334GB
set_num_threads(1)
psi4_io.set_default_path("/scratch/bdw2292/Psi4-7_1_Index_0_GrowFragment_0-farH_in17")
for _ in range(1):
  try:
    set opt_coordinates both
    optimize('wb97x-d/6-311G')
    break
  except OptimizationConvergenceError:
    break
  else:
    try:
      set opt_coordinates cartesian
      optimize('wb97x-d/6-311G')
      break
    except OptimizationConvergenceError:
      pass
clean()
