molecule { 
1 1
H 2.004167988783 -0.044962197555 -0.757889323712
C 1.143401371164 0.608679442723 -0.622740427869
N -0.043985169183 -0.226939959381 -0.248352662632
H -0.17895608998 -0.920689590675 -0.995403038676
H 0.92235308646 1.139785767116 -1.547598340986
H 1.328276080374 1.315921059322 0.185114602571
C -1.294463644254 0.596267711785 -0.171451823154
C 0.195162499517 -0.982143180324 1.024431227677
H -1.157377422049 1.349089937552 0.604185086113
H -1.461806067394 1.073614324729 -1.136101190408
H 1.113074771955 -1.559973614308 0.923967167317
H 0.28988166819 -0.259713674705 1.834450870853
H -2.130098554978 -0.056169121771 0.078775983675
H -0.651033856845 -1.643993478971 1.204618996329
}
memory 20GB
set_num_threads(5)
psi4_io.set_default_path("/scratch/liuchw/Psi4-32_40_Index_0-farH_in17")
set maxiter 500
set freeze_core True
set PROPERTIES_ORIGIN ["COM"]
set cubeprop_tasks ['esp']
set basis aug-cc-pVTZ 
E, wfn = properties('mp2',properties=['dipole','GRID_ESP','WIBERG_LOWDIN_INDICES','MULLIKEN_CHARGES'],return_wfn=True)
cubeprop(wfn)
fchk(wfn, "32_40_Index_0-esp.fchk")
clean()
