%RWF=/scratch/liuchw/Gau-32_40_Index_0-farH_in17/,1267GB
%Nosave
%Chk=32_40_Index_0-dma_temp.chk
%Mem=20GB
%Nproc=5
#P MP2/6-311G** Sp Density=MP2 MaxDisk=1267GB 

32_40_Index_0 Gaussian SP Calculation on node165.bme.utexas.edu

1 1
 H    2.004168   -0.044962   -0.757889
 C    1.143401    0.608679   -0.622740
 N   -0.043985   -0.226940   -0.248353
 H   -0.178956   -0.920690   -0.995403
 H    0.922353    1.139786   -1.547598
 H    1.328276    1.315921    0.185115
 C   -1.294464    0.596268   -0.171452
 C    0.195162   -0.982143    1.024431
 H   -1.157377    1.349090    0.604185
 H   -1.461806    1.073614   -1.136101
 H    1.113075   -1.559974    0.923967
 H    0.289882   -0.259714    1.834451
 H   -2.130099   -0.056169    0.078776
 H   -0.651034   -1.643993    1.204619



