molecule { 
0 1
 C    1.914965   -0.276677   -0.283798
 N    0.598218   -0.085162   -0.783652
 C   -0.602250    0.240912   -0.191509
 C   -0.940223    0.191817    1.140029
 H    0.590045    0.089330   -1.777014
 C   -1.653558    0.460391   -1.231603
 C   -0.119628    0.389943    2.338227
 N   -2.245972    0.113347    3.005396
 C   -2.336334    0.032957    1.618975
 C   -0.930604    0.347473    3.416317
 C   -2.451267    1.606480   -1.186855
 C   -1.827868   -0.455830   -2.274178
 C   -3.396339    1.841301   -2.177677
 C   -2.779872   -0.222371   -3.263300
 C   -3.562213    0.928622   -3.219130
 C    2.983009    0.028609   -1.135105
 C    2.190805   -0.997271    0.882636
 C    4.292512   -0.260011   -0.780161
 C    3.499743   -1.293743    1.239259
 C    4.577372   -0.923595    0.422025
 H   -3.045030   -0.002943    3.597021
 O   -3.398181   -0.199164    1.007726
 H   -2.330561    2.302496   -0.368295
 H   -1.245460   -1.368254   -2.287976
 H   -4.010540    2.730181   -2.133635
 H   -2.919112   -0.944301   -4.056817
 H   -4.304261    1.109169   -3.985172
 H    2.791722    0.536673   -2.073318
 H    1.383405   -1.358150    1.498957
 H    5.102215    0.030673   -1.436967
 H    3.686027   -1.850394    2.149382
 N    5.889866   -1.170148    0.805325
 H    0.924124    0.639556    2.362197
 H   -0.696426    0.504660    4.454495
 H    6.594710   -1.303910    0.105403
 H    6.063975   -1.602439    1.692856
}
memory 8.166666666666666GB
set_num_threads(2)
psi4_io.set_default_path("/scratch/bdw2292/Psi4-1_7_Index_0_GrowFragment_0-farH_in17")
set freeze_core True
E, wfn = energy('wb97x-d/6-311+G*',return_wfn=True)
oeprop(wfn,"WIBERG_LOWDIN_INDICES")
clean()
