molecule { 
0 1
 C    1.747313   -0.223646    0.099160
 N    0.642082   -0.221440    1.000807
 C   -0.641448    0.259834    0.917057
 C   -1.638105   -0.605869    1.382482
 H    0.702937   -0.924324    1.761925
 C   -1.066874    1.240958   -0.132786
 C   -2.900872   -0.994493    0.801627
 N   -2.696514   -1.987238    2.815097
 C   -1.527085   -1.276377    2.681587
 C   -3.512780   -1.821780    1.691654
 C   -1.775649    2.402713    0.262090
 C   -0.957296    0.949901   -1.520328
 C   -2.277442    3.292312   -0.696766
 C   -1.456763    1.844542   -2.475453
 C   -2.111560    3.025193   -2.070883
 C    2.660099   -1.307670    0.171437
 C    1.973537    0.792071   -0.864074
 C    3.739933   -1.389100   -0.719572
 C    3.050747    0.694690   -1.757485
 C    3.958166   -0.393080   -1.704984
 H   -2.889936   -2.546697    3.633083
 O   -0.572401   -1.261083    3.489436
 H   -1.922359    2.602875    1.325506
 H   -0.487890    0.017827   -1.840839
 H   -2.798741    4.196124   -0.376452
 H   -1.339056    1.621576   -3.537196
 H   -2.495726    3.723619   -2.816600
 H    2.499089   -2.083921    0.923886
 H    1.330600    1.668880   -0.889154
 H    4.413792   -2.245642   -0.644178
 H    3.183805    1.486407   -2.498468
 N    5.046971   -0.482559   -2.614871
 H   -3.301452   -0.681189   -0.151912
 H   -4.470943   -2.318844    1.634438
 H    5.819480   -0.979096   -2.163617
 H    5.436726    0.453027   -2.756779
}
set optking { 
  frozen_dihedral = ("
    1 2 3 4
    16 1 2 3
    2 3 6 11
    18 20 32 35
  ")
}
set {
  geom_maxiter 400
  g_convergence GAU_LOOSE
  dynamic_level 1
}
memory 8.166666666666666GB
set_num_threads(2)
psi4_io.set_default_path("/scratch/bdw2292/Psi4-1_7_Index_0_GrowFragment_0-farH_in17")
for _ in range(1):
  try:
    set opt_coordinates both
    optimize('wb97x-d/6-311G')
    break
  except OptimizationConvergenceError:
    break
  else:
    try:
      set opt_coordinates cartesian
      optimize('wb97x-d/6-311G')
      break
    except OptimizationConvergenceError:
      pass
clean()
