molecule { 
0 1
 C    1.787719   -0.138341   -0.540951
 N    0.484718    0.055850   -1.089194
 C   -0.697273    0.412770   -0.527570
 C   -0.911893    0.353888    0.840312
 H    0.420636    0.176486   -2.110185
 C   -1.881716    0.590330   -1.426811
 C   -0.707765    1.327834    1.881116
 N   -1.583102   -0.548520    2.776868
 C   -1.486822   -0.851801    1.436335
 C   -1.123898    0.747880    3.039096
 C   -2.677828    1.758444   -1.327145
 C   -2.241362   -0.409801   -2.366350
 C   -3.786087    1.934205   -2.166959
 C   -3.348073   -0.226825   -3.206556
 C   -4.124729    0.946550   -3.114911
 C    2.896710    0.131225   -1.385677
 C    2.036694   -0.449189    0.821487
 C    4.207022    0.047833   -0.893826
 C    3.352429   -0.525056    1.303342
 C    4.464986   -0.290412    0.457861
 H   -1.950366   -1.213072    3.442564
 O   -1.813447   -1.931937    0.902392
 H   -2.420319    2.524653   -0.593503
 H   -1.654035   -1.328153   -2.427842
 H   -4.386184    2.842438   -2.087434
 H   -3.606086   -0.997650   -3.934965
 H   -4.984852    1.088018   -3.771860
 H    2.710617    0.409867   -2.426350
 H    1.212831   -0.646192    1.499472
 H    5.034534    0.256290   -1.576018
 H    3.505264   -0.770588    2.356763
 N    5.793636   -0.376394    0.955649
 H   -0.296593    2.320917    1.774459
 H   -1.131434    1.136631    4.047821
 H    6.418204   -0.660744    0.196941
 H    5.852248   -1.168922    1.600506
}
set optking { 
  frozen_dihedral = ("
    1 2 3 4
    16 1 2 3
    2 3 6 11
    18 20 32 35
  ")
}
set {
  geom_maxiter 400
  g_convergence GAU_LOOSE
  dynamic_level 1
}
memory 8.166666666666666GB
set_num_threads(2)
psi4_io.set_default_path("/scratch/bdw2292/Psi4-1_7_Index_0_GrowFragment_0-farH_in17")
for _ in range(1):
  try:
    set opt_coordinates both
    optimize('wb97x-d/6-311G')
    break
  except OptimizationConvergenceError:
    break
  else:
    try:
      set opt_coordinates cartesian
      optimize('wb97x-d/6-311G')
      break
    except OptimizationConvergenceError:
      pass
clean()
