molecule { 
0 1
 C    1.676053   -0.492894   -0.242607
 N    0.310837   -0.880332   -0.280720
 C   -0.696264   -0.045925    0.024926
 C   -1.292210   -0.270444    1.254769
 H    0.007126   -1.604002   -0.951645
 C   -1.518305    0.541251   -1.076853
 C   -1.342862    0.515136    2.459663
 N   -2.517526   -1.391658    2.757611
 C   -2.061905   -1.496593    1.462524
 C   -2.088056   -0.195898    3.348768
 C   -1.765211    1.935462   -1.088879
 C   -2.063699   -0.263971   -2.109875
 C   -2.521961    2.512556   -2.117585
 C   -2.817431    0.318681   -3.137642
 C   -3.049780    1.709415   -3.149722
 C    2.595820   -1.103999   -1.128785
 C    2.102144    0.593861    0.560588
 C    3.928683   -0.668429   -1.167428
 C    3.437497    1.018620    0.514193
 C    4.381635    0.392024   -0.339410
 H   -3.087370   -2.109702    3.180574
 O   -2.271272   -2.447545    0.675247
 H   -1.357486    2.559403   -0.291322
 H   -1.902727   -1.343952   -2.097021
 H   -2.700476    3.589281   -2.119350
 H   -3.225466   -0.310233   -3.930785
 H   -3.636390    2.160540   -3.952292
 H    2.247985   -1.911286   -1.777507
 H    1.382353    1.087774    1.214897
 H    4.618427   -1.160441   -1.856842
 H    3.741417    1.852734    1.150407
 N    5.732798    0.831003   -0.378023
 H   -0.888180    1.479371    2.633939
 H   -2.365776    0.036874    4.367492
 H    6.335715    0.042977   -0.627307
 H    6.036249    1.048847    0.574882
}
set optking { 
  frozen_dihedral = ("
    1 2 3 4
    16 1 2 3
    2 3 6 11
    18 20 32 35
  ")
}
set {
  geom_maxiter 400
  g_convergence GAU_LOOSE
  dynamic_level 1
}
memory 8.166666666666666GB
set_num_threads(2)
psi4_io.set_default_path("/scratch/bdw2292/Psi4-1_7_Index_0_GrowFragment_0-farH_in17")
for _ in range(1):
  try:
    set opt_coordinates both
    optimize('wb97x-d/6-311G')
    break
  except OptimizationConvergenceError:
    break
  else:
    try:
      set opt_coordinates cartesian
      optimize('wb97x-d/6-311G')
      break
    except OptimizationConvergenceError:
      pass
clean()
