molecule { 
0 1
 C    1.604757   -0.476988   -0.152527
 N    0.511506   -0.554768    0.746850
 C   -0.711759    0.034834    0.728147
 C   -1.697788   -0.467064    1.559796
 H    0.581763   -1.287410    1.461756
 C   -1.076519    1.031067   -0.315734
 C   -3.104180   -0.115256    1.685916
 N   -2.657566   -1.794327    3.116249
 C   -1.450943   -1.553774    2.497188
 C   -3.649126   -0.931008    2.617030
 C   -1.647623    2.253253    0.048461
 C   -0.980040    0.698359   -1.672655
 C   -2.071553    3.151776   -0.928834
 C   -1.410635    1.592705   -2.645681
 C   -1.950626    2.824993   -2.277024
 C    2.425181   -1.605567   -0.257285
 C    1.990351    0.689514   -0.819352
 C    3.551680   -1.598429   -1.066721
 C    3.120674    0.699642   -1.626977
 C    3.920990   -0.442436   -1.769895
 H   -2.781229   -2.503567    3.812013
 O   -0.371678   -2.181522    2.719008
 H   -1.744665    2.501967    1.096565
 H   -0.567968   -0.258380   -1.961459
 H   -2.498773    4.101012   -0.635691
 H   -1.330219    1.325705   -3.690446
 H   -2.281741    3.520589   -3.036039
 H    2.155990   -2.506007    0.280062
 H    1.424330    1.600001   -0.699291
 H    4.148565   -2.496393   -1.160853
 H    3.398690    1.614641   -2.135077
 N    5.024035   -0.447547   -2.617981
 H   -3.624813    0.636354    1.120092
 H   -4.659930   -0.989951    2.977648
 H    5.794267   -1.057181   -2.417672
 H    5.250519    0.390075   -3.120180
}
memory 8.166666666666666GB
set_num_threads(2)
psi4_io.set_default_path("/scratch/bdw2292/Psi4-1_7_Index_0_GrowFragment_0-farH_in17")
set freeze_core True
E, wfn = energy('wb97x-d/6-311+G*',return_wfn=True)
oeprop(wfn,"WIBERG_LOWDIN_INDICES")
clean()
