molecule { 
0 1
 C    1.607542   -0.470484   -0.480929
 N    0.216471   -0.507065   -0.778526
 C   -0.875322    0.006196   -0.120031
 C   -1.109712   -0.099357    1.230728
 H    0.073471   -0.548863   -1.775692
 C   -1.884948    0.604543   -1.046293
 C   -2.174104    0.530772    2.014627
 N   -1.231190   -1.052794    3.296666
 C   -0.546233   -1.162874    2.092601
 C   -2.197361   -0.044810    3.234958
 C   -2.421368    1.878490   -0.832042
 C   -2.356369   -0.151881   -2.128757
 C   -3.386190    2.393273   -1.694121
 C   -3.320267    0.365097   -2.989061
 C   -3.838700    1.639994   -2.774845
 C    2.468788   -0.486009   -1.588017
 C    2.162483   -0.223192    0.774537
 C    3.838855   -0.344979   -1.444970
 C    3.539062   -0.082344    0.919969
 C    4.405379   -0.161004   -0.175087
 H   -1.075620   -1.684734    4.057429
 O    0.280559   -2.063220    1.838176
 H   -2.052132    2.484311   -0.017121
 H   -1.998452   -1.163162   -2.278235
 H   -3.780213    3.385720   -1.522587
 H   -3.675685   -0.234611   -3.815800
 H   -4.589910    2.040626   -3.441324
 H    2.059038   -0.615594   -2.583832
 H    1.544755   -0.143234    1.647202
 H    4.473989   -0.352257   -2.321367
 H    3.944037    0.085198    1.910112
 N    5.780109    0.002664   -0.028057
 H   -2.822972    1.324292    1.696245
 H   -2.822299    0.173582    4.082634
 H    6.399039   -0.434071   -0.684187
 H    6.152612    0.157156    0.889570
}
memory 8.166666666666666GB
set_num_threads(2)
psi4_io.set_default_path("/scratch/bdw2292/Psi4-1_7_Index_0_GrowFragment_0-farH_in17")
set freeze_core True
E, wfn = energy('wb97x-d/6-311+G*',return_wfn=True)
oeprop(wfn,"WIBERG_LOWDIN_INDICES")
clean()
