molecule { 
0 1
 C    1.543299   -0.205457    0.652415
 N    0.507265    0.772095    0.617559
 C   -0.699833    0.662449   -0.031355
 C   -1.474130   -0.466083   -0.010419
 H    0.791310    1.709058    0.851198
 C   -1.149043    1.902657   -0.716557
 C   -2.629396   -0.771829   -0.852496
 N   -2.350148   -2.474562    0.588325
 C   -1.319715   -1.601830    0.923252
 C   -3.113412   -1.973858   -0.474381
 C   -2.448045    2.393314   -0.538601
 C   -0.253788    2.617962   -1.522253
 C   -2.847123    3.569091   -1.166761
 C   -0.657046    3.790169   -2.155683
 C   -1.954614    4.267478   -1.979032
 C    2.382284   -0.278620    1.761717
 C    1.764463   -1.062496   -0.422883
 C    3.434075   -1.182224    1.794374
 C    2.812868   -1.972698   -0.393046
 C    3.672537   -2.041941    0.712152
 H   -2.503951   -3.332661    1.080396
 O   -0.522797   -1.780987    1.864303
 H   -3.131209    1.851838    0.100873
 H    0.750718    2.239508   -1.663207
 H   -3.850031    3.944808   -1.016914
 H    0.037168    4.327878   -2.786939
 H   -2.267668    5.179998   -2.467817
 H    2.178285    0.345095    2.621409
 H    1.110911   -1.024370   -1.284169
 H    4.056186   -1.252231    2.677381
 H    2.971733   -2.631882   -1.237577
 N    4.700834   -2.978243    0.765561
 H   -2.996175   -0.165132   -1.661351
 H   -3.935425   -2.539625   -0.875596
 H    5.520097   -2.780899    1.307576
 H    4.821666   -3.611016   -0.002116
}
memory 8.166666666666666GB
set_num_threads(2)
psi4_io.set_default_path("/scratch/bdw2292/Psi4-1_7_Index_0_GrowFragment_0-farH_in17")
set freeze_core True
E, wfn = energy('wb97x-d/6-311+G*',return_wfn=True)
oeprop(wfn,"WIBERG_LOWDIN_INDICES")
clean()
