molecule { 
0 1
 C    1.605806   -0.543022   -0.197793
 N    0.281227   -0.869386   -0.612544
 C   -0.883361   -0.195473   -0.226446
 C   -1.449455   -0.338653    1.003081
 H    0.276777   -1.072045   -1.601730
 C   -1.587992    0.531893   -1.322460
 C   -2.702803    0.236600    1.497091
 N   -1.930275   -1.176652    3.069524
 C   -0.966846   -1.257836    2.070237
 C   -2.949538   -0.285843    2.715018
 C   -1.988191    1.862389   -1.156350
 C   -1.873807   -0.112346   -2.533303
 C   -2.643663    2.537098   -2.183423
 C   -2.531116    0.562304   -3.556976
 C   -2.916095    1.890527   -3.386359
 C    2.654809   -0.815435   -1.080476
 C    1.901694    0.074021    1.016636
 C    3.966780   -0.502553   -0.753005
 C    3.216121    0.381140    1.348355
 C    4.273924    0.087199    0.480097
 H   -1.871654   -1.708421    3.915565
 O    0.038125   -1.984477    2.119373
 H   -1.761795    2.372932   -0.230704
 H   -1.613770   -1.155166   -2.668732
 H   -2.936407    3.568826   -2.044520
 H   -2.750716    0.048249   -4.482491
 H   -3.425253    2.414744   -4.183089
 H    2.445699   -1.275218   -2.039625
 H    1.116213    0.307822    1.715755
 H    4.758877   -0.704901   -1.462635
 H    3.422563    0.844969    2.304970
 N    5.590958    0.418360    0.802560
 H   -3.335232    0.925956    0.969718
 H   -3.780513   -0.113395    3.375862
 H    6.335673   -0.129837    0.415330
 H    5.774906    0.825124    1.700245
}
memory 8.166666666666666GB
set_num_threads(2)
psi4_io.set_default_path("/scratch/bdw2292/Psi4-1_7_Index_0_GrowFragment_0-farH_in17")
set freeze_core True
E, wfn = energy('wb97x-d/6-311+G*',return_wfn=True)
oeprop(wfn,"WIBERG_LOWDIN_INDICES")
clean()
