molecule { 
0 1
 C    0.965666   -1.211251   -0.368472
 N   -0.454410   -1.146673   -0.624314
 C   -1.162112   -0.008973   -0.225456
 C   -1.984957   -0.032709    0.862670
 H   -0.903894   -1.994455   -0.283700
 C   -0.806404    1.235028   -0.949395
 C   -2.860284    1.003912    1.407513
 N   -3.086328   -0.846833    2.675814
 C   -2.204699   -1.239937    1.687760
 C   -3.483956    0.489172    2.487188
 C   -0.526536    2.427692   -0.271177
 C   -0.680509    1.198914   -2.343561
 C   -0.159378    3.569667   -0.976952
 C   -0.320182    2.342953   -3.047859
 C   -0.062291    3.531881   -2.366715
 C    1.780321   -1.932231   -1.240508
 C    1.545165   -0.557863    0.716021
 C    3.147967   -2.019935   -1.023085
 C    2.913731   -0.645345    0.942645
 C    3.737189   -1.383525    0.081258
 H   -3.424415   -1.472865    3.380634
 O   -1.736018   -2.394655    1.555030
 H   -0.575724    2.450153    0.808955
 H   -0.863333    0.266262   -2.858243
 H    0.065518    4.482952   -0.442677
 H   -0.233893    2.306560   -4.125280
 H    0.225489    4.419357   -2.913900
 H    1.333168   -2.400416   -2.106704
 H    0.922760    0.005379    1.398564
 H    3.773105   -2.561372   -1.721805
 H    3.348165   -0.140809    1.796765
 N    5.113714   -1.438255    0.274826
 H   -2.990687    1.994802    1.011242
 H   -4.194708    0.945599    3.152711
 H    5.623690   -2.237392   -0.050812
 H    5.511351   -0.955629    1.058312
}
memory 8.166666666666666GB
set_num_threads(2)
psi4_io.set_default_path("/scratch/bdw2292/Psi4-1_7_Index_0_GrowFragment_0-farH_in17")
set freeze_core True
E, wfn = energy('wb97x-d/6-311+G*',return_wfn=True)
oeprop(wfn,"WIBERG_LOWDIN_INDICES")
clean()
