molecule { 
0 1
 C    1.401790   -0.559821    0.567805
 N    0.369989   -1.137972   -0.233377
 C   -0.764178   -0.476192   -0.630244
 C   -1.984930   -1.104059   -0.572480
 H    0.207003   -2.129995   -0.055539
 C   -0.612638    0.934617   -1.066024
 C   -3.302820   -0.664618   -1.016367
 N   -3.499488   -2.733473   -0.146985
 C   -2.149923   -2.464051   -0.052024
 C   -4.180589   -1.652948   -0.736504
 C   -1.448411    1.939523   -0.567690
 C    0.412880    1.274832   -1.955317
 C   -1.274195    3.260823   -0.969695
 C    0.582778    2.594838   -2.358572
 C   -0.260658    3.590277   -1.867744
 C    2.711452   -1.015460    0.410979
 C    1.139963    0.423072    1.521468
 C    3.738640   -0.510247    1.195274
 C    2.165642    0.936981    2.304937
 C    3.480658    0.471659    2.164471
 H   -3.898901   -3.608999    0.130197
 O   -1.274795   -3.263932    0.377331
 H   -2.220795    1.682694    0.144818
 H    1.072040    0.499664   -2.320678
 H   -1.921953    4.032614   -0.576685
 H    1.374751    2.848860   -3.049668
 H   -0.123692    4.617229   -2.177728
 H    2.920914   -1.762746   -0.342531
 H    0.129684    0.779206    1.664970
 H    4.751514   -0.862731    1.048814
 H    1.943261    1.695657    3.044769
 N    4.515478    1.005392    2.925167
 H   -3.533504    0.274345   -1.486702
 H   -5.241442   -1.700632   -0.904477
 H    5.316802    0.439504    3.130956
 H    4.301299    1.717795    3.597286
}
memory 8.166666666666666GB
set_num_threads(2)
psi4_io.set_default_path("/scratch/bdw2292/Psi4-1_7_Index_0_GrowFragment_0-farH_in17")
set freeze_core True
E, wfn = energy('wb97x-d/6-311+G*',return_wfn=True)
oeprop(wfn,"WIBERG_LOWDIN_INDICES")
clean()
