molecule { 
0 1
 C    1.617099   -0.312054   -0.035278
 N    0.440874   -0.843342    0.557129
 C   -0.833413   -0.376996    0.473896
 C   -1.785632   -0.862691    1.348007
 H    0.568599   -1.560745    1.275657
 C   -1.195109    0.579840   -0.603322
 C   -3.221307   -0.629078    1.419609
 N   -2.650105   -2.071475    3.051255
 C   -1.461465   -1.817072    2.400718
 C   -3.704754   -1.362078    2.448532
 C   -1.894654    1.753837   -0.307960
 C   -0.852363    0.300501   -1.930847
 C   -2.244143    2.637528   -1.326237
 C   -1.206829    1.181790   -2.946045
 C   -1.901343    2.353301   -2.646307
 C    2.643197   -1.199116   -0.370867
 C    1.821695    1.054823   -0.233188
 C    3.830094   -0.740016   -0.923975
 C    3.008036    1.517527   -0.787304
 C    4.034825    0.630580   -1.140820
 H   -2.724393   -2.706047    3.822311
 O   -0.342975   -2.340699    2.680515
 H   -2.150366    1.974887    0.719460
 H   -0.304922   -0.603059   -2.160711
 H   -2.781353    3.545535   -1.088477
 H   -0.939884    0.955617   -3.969239
 H   -2.173080    3.039798   -3.436605
 H    2.495767   -2.260051   -0.216809
 H    1.060458    1.764697    0.053736
 H    4.600972   -1.446366   -1.203673
 H    3.146248    2.581708   -0.931433
 N    5.205157    1.086193   -1.738448
 H   -3.797801   -0.000651    0.764055
 H   -4.710110   -1.455997    2.817300
 H    6.054124    0.568248   -1.613335
 H    5.313599    2.069922   -1.899727
}
memory 8.166666666666666GB
set_num_threads(2)
psi4_io.set_default_path("/scratch/bdw2292/Psi4-1_7_Index_0_GrowFragment_0-farH_in17")
set freeze_core True
E, wfn = energy('wb97x-d/6-311+G*',return_wfn=True)
oeprop(wfn,"WIBERG_LOWDIN_INDICES")
clean()
