molecule { 
0 1
 C    1.717503   -0.420271   -0.390747
 N    0.350931   -0.638527   -0.724410
 C   -0.689782    0.108281   -0.295924
 C   -1.103483   -0.075552    1.016465
 H    0.163822   -1.015782   -1.664645
 C   -1.700784    0.583714   -1.291008
 C   -1.170597    0.835635    2.129902
 N   -1.966537   -1.176632    2.768650
 C   -1.651260   -1.365835    1.441000
 C   -1.683008    0.132405    3.175292
 C   -2.082678    1.947433   -1.297146
 C   -2.311430   -0.306768   -2.211809
 C   -3.032855    2.413790   -2.215479
 C   -3.259078    0.165701   -3.129981
 C   -3.624639    1.527549   -3.138943
 C    2.710481   -0.788478   -1.333599
 C    2.108961    0.282814    0.777354
 C    4.061968   -0.509719   -1.084279
 C    3.464350    0.555788    1.015580
 C    4.470472    0.156367    0.099474
 H   -2.358200   -1.918610    3.330442
 O   -1.814698   -2.422476    0.792430
 H   -1.627728    2.635634   -0.582464
 H   -2.047234   -1.366498   -2.195479
 H   -3.313296    3.468583   -2.215506
 H   -3.714895   -0.527135   -3.839369
 H   -4.363678    1.893119   -3.854211
 H    2.403894   -1.288743   -2.255650
 H    1.354944    0.605893    1.491485
 H    4.802542   -0.812781   -1.827966
 H    3.734127    1.091997    1.928293
 N    5.841391    0.436240    0.351613
 H   -0.870673    1.873615    2.144206
 H   -1.881947    0.443174    4.191524
 H    6.418054   -0.282627   -0.092886
 H    6.029426    0.287208    1.346667
}
set optking { 
  frozen_dihedral = ("
    1 2 3 4
    16 1 2 3
    2 3 6 11
    18 20 32 35
  ")
}
set {
  geom_maxiter 400
  g_convergence GAU_LOOSE
  dynamic_level 1
}
memory 8.166666666666666GB
set_num_threads(2)
psi4_io.set_default_path("/scratch/bdw2292/Psi4-1_7_Index_0_GrowFragment_0-farH_in17")
for _ in range(1):
  try:
    set opt_coordinates both
    optimize('wb97x-d/6-311G')
    break
  except OptimizationConvergenceError:
    break
  else:
    try:
      set opt_coordinates cartesian
      optimize('wb97x-d/6-311G')
      break
    except OptimizationConvergenceError:
      pass
clean()
