molecule { 
0 1
 C    1.643556   -0.108716   -0.004705
 N    0.708868    0.590307    0.791308
 C   -0.692159    0.474310    0.545727
 C   -1.359362   -0.650578    0.884480
 H    0.968125    0.701281    1.758322
 C   -1.365364    1.680101    0.008949
 C   -2.737040   -1.045448    0.586644
 N   -1.779039   -2.719999    1.760476
 C   -0.765592   -1.776539    1.676878
 C   -2.933184   -2.276350    1.098089
 C   -2.557166    2.151901    0.576888
 C   -0.746044    2.443228   -0.990625
 C   -3.149198    3.322374    0.109854
 C   -1.345760    3.603705   -1.465966
 C   -2.552337    4.043865   -0.921480
 C    2.864763   -0.518910    0.541172
 C    1.381730   -0.416198   -1.342162
 C    3.810666   -1.171681   -0.236040
 C    2.333119   -1.067325   -2.123383
 C    3.569563   -1.444647   -1.590168
 H   -1.671240   -3.586930    2.249850
 O    0.341922   -1.874981    2.225639
 H   -3.009001    1.605549    1.393836
 H    0.212914    2.128792   -1.377765
 H   -4.066233    3.676758    0.560847
 H   -0.865669    4.173297   -2.249798
 H   -3.012213    4.952578   -1.285443
 H    3.061057   -0.349346    1.591523
 H    0.429405   -0.153340   -1.783944
 H    4.737642   -1.501185    0.216450
 H    2.107941   -1.282456   -3.161038
 N    4.517226   -2.125333   -2.359219
 H   -3.438935   -0.477768    0.003622
 H   -3.803936   -2.905534    1.041922
 H    5.488533   -2.029197   -2.132282
 H    4.309614   -2.316632   -3.320502
}
memory 8.166666666666666GB
set_num_threads(2)
psi4_io.set_default_path("/scratch/bdw2292/Psi4-1_7_Index_0_GrowFragment_0-farH_in17")
set freeze_core True
E, wfn = energy('wb97x-d/6-311+G*',return_wfn=True)
oeprop(wfn,"WIBERG_LOWDIN_INDICES")
clean()
