molecule { 
0 1
 C    1.782387    0.037182   -0.598381
 N    0.524594    0.433743   -1.136052
 C   -0.689227    0.563240   -0.558211
 C   -0.833145    0.572772    0.822077
 H    0.485532    0.780931   -2.104685
 C   -1.901869    0.567759   -1.436430
 C   -0.491589    1.569737    1.803367
 N   -1.438246   -0.197473    2.837360
 C   -1.447382   -0.562767    1.509531
 C   -0.871926    1.071231    3.010348
 C   -2.884368    1.577944   -1.285751
 C   -2.092426   -0.436550   -2.419655
 C   -4.018108    1.591793   -2.109474
 C   -3.226953   -0.416090   -3.242441
 C   -4.195452    0.597889   -3.093920
 C    2.952848    0.579806   -1.185362
 C    1.909367   -0.763774    0.565032
 C    4.214735    0.298920   -0.642203
 C    3.176696   -1.034946    1.101776
 C    4.356165   -0.520696    0.506531
 H   -1.807462   -0.803911    3.555570
 O   -1.855810   -1.649682    1.051479
 H   -2.750895    2.348974   -0.524551
 H   -1.352235   -1.231232   -2.530210
 H   -4.763426    2.379787   -1.988697
 H   -3.357710   -1.188305   -4.002647
 H   -5.077931    0.612770   -3.736158
 H    2.850820    1.225565   -2.061399
 H    1.023851   -1.189292    1.030440
 H    5.096270    0.732795   -1.119759
 H    3.238929   -1.657984    1.996904
 N    5.636500   -0.806872    1.053916
 H   -0.021334    2.526103    1.626108
 H   -0.789542    1.502315    3.998346
 H    6.331589   -0.800652    0.303274
 H    5.651137   -1.782521    1.362803
}
set optking { 
  frozen_dihedral = ("
    1 2 3 4
    16 1 2 3
    2 3 6 11
    18 20 32 35
  ")
}
set {
  geom_maxiter 400
  g_convergence GAU_LOOSE
  dynamic_level 1
}
memory 8.166666666666666GB
set_num_threads(2)
psi4_io.set_default_path("/scratch/bdw2292/Psi4-1_7_Index_0_GrowFragment_0-farH_in17")
for _ in range(1):
  try:
    set opt_coordinates both
    optimize('wb97x-d/6-311G')
    break
  except OptimizationConvergenceError:
    break
  else:
    try:
      set opt_coordinates cartesian
      optimize('wb97x-d/6-311G')
      break
    except OptimizationConvergenceError:
      pass
clean()
