molecule { 
0 1
 C    1.657526   -0.399238    0.056684
 N    0.443863   -0.797552    0.681772
 C   -0.735020   -0.119185    0.706183
 C   -1.713160   -0.534182    1.611631
 H    0.367214   -1.748731    1.090732
 C   -1.128050    0.690611   -0.491851
 C   -2.630416    0.221119    2.428293
 N   -3.024433   -1.978519    2.737021
 C   -1.978893   -1.956005    1.844448
 C   -3.408230   -0.679715    3.088100
 C   -1.566736    2.029698   -0.337227
 C   -1.055298    0.137535   -1.796451
 C   -1.915733    2.794832   -1.457728
 C   -1.403910    0.908338   -2.913161
 C   -1.835338    2.240927   -2.751549
 C    2.531089   -1.404217   -0.424604
 C    1.935881    0.958789   -0.241569
 C    3.687562   -1.051895   -1.135289
 C    3.092929    1.298563   -0.957369
 C    3.999633    0.305368   -1.408552
 H   -3.423016   -2.843784    3.071723
 O   -1.377594   -2.949126    1.375900
 H   -1.624194    2.466591    0.660945
 H   -0.725238   -0.895045   -1.926764
 H   -2.247672    3.826309   -1.326502
 H   -1.339804    0.474035   -3.912243
 H   -2.105283    2.840235   -3.623016
 H    2.283032   -2.451627   -0.235678
 H    1.248178    1.734414    0.095658
 H    4.347333   -1.849493   -1.484163
 H    3.283983    2.353389   -1.167335
 N    5.172848    0.661301   -2.128210
 H   -2.703787    1.296134    2.503133
 H   -4.215253   -0.520931    3.789585
 H    5.899148   -0.037413   -1.952036
 H    5.571227    1.506971   -1.711634
}
set optking { 
  frozen_dihedral = ("
    1 2 3 4
    16 1 2 3
    2 3 6 11
    18 20 32 35
  ")
}
set {
  geom_maxiter 400
  g_convergence GAU_LOOSE
  dynamic_level 1
}
memory 8.166666666666666GB
set_num_threads(2)
psi4_io.set_default_path("/scratch/bdw2292/Psi4-1_7_Index_0_GrowFragment_0-farH_in17")
for _ in range(1):
  try:
    set opt_coordinates both
    optimize('wb97x-d/6-311G')
    break
  except OptimizationConvergenceError:
    break
  else:
    try:
      set opt_coordinates cartesian
      optimize('wb97x-d/6-311G')
      break
    except OptimizationConvergenceError:
      pass
clean()
