molecule { 
0 1
 C    1.762345    0.091492   -0.130114
 N    0.760200    0.930426    0.428258
 C   -0.575544    0.772363    0.368036
 C   -1.113017   -0.490266    0.575432
 H    1.011921    1.804252    0.912986
 C   -1.409539    1.913906   -0.112747
 C   -1.816139   -1.388377   -0.304031
 N   -1.648495   -2.327311    1.741065
 C   -1.039249   -1.102609    1.901723
 C   -2.109850   -2.495356    0.429709
 C   -2.546128    2.319472    0.629052
 C   -1.076029    2.611689   -1.301545
 C   -3.330634    3.394812    0.190913
 C   -1.863646    3.686984   -1.734039
 C   -2.994849    4.085240   -0.992055
 C    3.020154    0.017254    0.514895
 C    1.478628   -0.801296   -1.193577
 C    4.000869   -0.870166    0.048112
 C    2.465631   -1.686695   -1.650407
 C    3.751522   -1.730037   -1.052962
 H   -1.729830   -2.982039    2.505510
 O   -0.549607   -0.659078    2.962515
 H   -2.806460    1.789363    1.547480
 H   -0.202589    2.305201   -1.880313
 H   -4.203389    3.698721    0.771468
 H   -1.597994    4.218144   -2.649650
 H   -3.606734    4.923346   -1.330870
 H    3.205985    0.657189    1.380662
 H    0.491731   -0.786460   -1.655759
 H    4.967039   -0.893901    0.557242
 H    2.222796   -2.353219   -2.480973
 N    4.748643   -2.623757   -1.529851
 H   -2.063488   -1.225454   -1.343162
 H   -2.618926   -3.404963    0.143014
 H    5.672507   -2.220361   -1.355115
 H    4.706549   -2.650008   -2.552024
}
set optking { 
  frozen_dihedral = ("
    1 2 3 4
    16 1 2 3
    2 3 6 11
    18 20 32 35
  ")
}
set {
  geom_maxiter 400
  g_convergence GAU_LOOSE
  dynamic_level 1
}
memory 8.166666666666666GB
set_num_threads(2)
psi4_io.set_default_path("/scratch/bdw2292/Psi4-1_7_Index_0_GrowFragment_0-farH_in17")
for _ in range(1):
  try:
    set opt_coordinates both
    optimize('wb97x-d/6-311G')
    break
  except OptimizationConvergenceError:
    break
  else:
    try:
      set opt_coordinates cartesian
      optimize('wb97x-d/6-311G')
      break
    except OptimizationConvergenceError:
      pass
clean()
