molecule { 
0 1
 N    0.988423    0.518468   -1.828574
 C    0.310062    0.208845   -0.699599
 C   -0.409045   -1.073447   -0.668481
 C    0.199338   -2.221228   -1.172106
 C    0.383257    1.044662    0.387416
 C   -1.696901   -1.160590   -0.145555
 H    1.371518    1.464622   -1.832949
 C   -0.096815    0.892470    1.735259
 N    0.829490    2.920225    1.553873
 C    1.001588    2.366761    0.314996
 C    0.192675    2.027633    2.400366
 C   -2.360802   -2.373255   -0.128094
 C   -0.465087   -3.433182   -1.143776
 C   -1.746481   -3.511917   -0.623527
 H   -2.178790   -0.268887    0.225970
 H    1.202584   -2.158192   -1.567608
 H    1.168546    3.830220    1.816799
 O    1.543217    2.919140   -0.642186
 H   -3.362463   -2.430884    0.272015
 H    0.017938   -4.319524   -1.528173
 H   -2.265978   -4.458487   -0.605736
 H   -0.572151    0.018444    2.133633
 H    0.002081    2.293409    3.422399
 H    0.668183    0.142111   -2.705526
}
memory 20GB
set_num_threads(5)
psi4_io.set_default_path("/scratch/liuchw/Psi4-7_11_Index_0-farH_in17")
set freeze_core True
E, wfn = energy('wb97x-d/6-311+G*',return_wfn=True)
oeprop(wfn,"WIBERG_LOWDIN_INDICES")
clean()
