molecule { 
0 1
CL 0.552657501958 0.050918530793 -0.021174480298
C -1.215710015703 -0.112024169971 0.046574293798
H -1.547586702148 -0.709545699757 -0.800067328339
H -1.489498057179 -0.602069259060 0.978725958994
H -1.663412280968 0.878729737193 0.001487476826
}
memory 15GB
set_num_threads(4)
psi4_io.set_default_path("/scratch/bdw2292/Psi4-CH3Cl")
set freeze_core True
set PROPERTIES_ORIGIN ["COM"]
set cubeprop_tasks ['esp']
E, wfn = properties('mp2/6-311G**',properties=['dipole'],return_wfn=True)
cubeprop(wfn)
fchk(wfn, "CH3Cl-dma.fchk")
clean()
