molecule { 
0 1
 C    0.862155   -0.747214   -0.274008
 C   -0.231125    0.068637   -0.007715
 C   -1.592914   -0.516765    0.115452
 O   -1.672618   -1.403639    1.117894
 C   -0.071553    1.448412    0.053662
 O   -2.538009   -0.221648   -0.566804
 C    2.114036   -0.184068   -0.446537
 C    2.277457    1.188371   -0.357266
 H    0.729019   -1.816633   -0.339310
 C    1.185299    2.002956   -0.106321
 H   -0.931869    2.074830    0.235110
 H    1.311721    3.073528   -0.043816
 H   -2.570005   -1.769291    1.175787
 H    2.963465   -0.817871   -0.653707
 H    3.256679    1.624531   -0.488884
}
memory 20GB
set_num_threads(5)
psi4_io.set_default_path("/scratch/liuchw/Psi4-13_34_Index_0-farH_in17")
set freeze_core True
E, wfn = energy('wb97x-d/6-311+G*',return_wfn=True)
oeprop(wfn,"WIBERG_LOWDIN_INDICES")
clean()
