molecule { 
0 1
 C    0.857371   -0.739702   -0.169043
 C   -0.237581    0.095436    0.032216
 C   -1.599783   -0.457422    0.204973
 O   -1.603254   -1.666100    0.790530
 C   -0.073246    1.477958    0.003955
 O   -2.617544    0.105965   -0.109444
 C    2.110243   -0.191020   -0.371619
 C    2.275064    1.184940   -0.377084
 H    0.718791   -1.809849   -0.162626
 C    1.183654    2.018587   -0.188974
 H   -0.938409    2.108777    0.141049
 H    1.313863    3.090445   -0.199792
 H   -2.514615   -1.985534    0.881754
 H    2.961033   -0.837268   -0.529002
 H    3.256147    1.608922   -0.533356
}
memory 20GB
set_num_threads(5)
psi4_io.set_default_path("/scratch/liuchw/Psi4-13_34_Index_0-farH_in17")
set freeze_core True
E, wfn = energy('wb97x-d/6-311+G*',return_wfn=True)
oeprop(wfn,"WIBERG_LOWDIN_INDICES")
clean()
