molecule { 
0 1
 H    0.515874    1.139481   -0.143968
 N    0.340027    0.143078    0.029453
 C    1.402822   -0.765678    0.173634
 C    2.197573   -1.082599   -0.923255
 C   -0.955577   -0.171219    0.118088
 C    1.607340   -1.419366    1.384183
 C   -1.921331    0.779685   -0.047858
 N   -2.795942    2.822492   -0.407409
 C   -3.354715    0.700930    0.035539
 C   -1.596110    2.173295   -0.329816
 C   -3.840567    1.937710   -0.185917
 C    2.626561   -2.346632    1.505970
 C    3.217657   -2.006666   -0.792654
 C    3.434745   -2.639506    0.420458
 H    0.971130   -1.186470    2.225503
 H    2.019410   -0.586252   -1.865402
 H   -2.898476    3.806457   -0.590206
 O   -0.485555    2.690279   -0.465524
 H    2.789006   -2.842747    2.451294
 H    3.837708   -2.243653   -1.644363
 H   -3.918581   -0.188547    0.234700
 H   -4.855363    2.285602   -0.204892
 H    4.229909   -3.363034    0.518004
 H   -1.201790   -1.197659    0.365723
}
memory 20GB
set_num_threads(5)
psi4_io.set_default_path("/scratch/liuchw/Psi4-1_16_Index_0-farH_in17")
set freeze_core True
E, wfn = energy('wb97x-d/6-311+G*',return_wfn=True)
oeprop(wfn,"WIBERG_LOWDIN_INDICES")
clean()
