molecule { 
0 1
 H    0.373366    0.757341   -0.695699
 N    0.237715   -0.041039   -0.064977
 C    1.307923   -0.892814    0.131710
 C    2.432096   -0.724438   -0.681116
 C   -0.989416   -0.087618    0.472950
 C    1.311344   -1.911157    1.085581
 C   -1.930136    0.845166    0.145233
 N   -2.830982    2.660449   -0.839822
 C   -3.278334    1.018580    0.614421
 C   -1.673374    1.935262   -0.795105
 C   -3.782389    2.108288    0.003723
 C    2.414092   -2.733739    1.216933
 C    3.527824   -1.551056   -0.540723
 C    3.524571   -2.561866    0.408038
 H    0.460412   -2.060887    1.731586
 H    2.431014    0.064102   -1.419511
 H   -2.964852    3.482713   -1.403865
 O   -0.643727    2.181974   -1.421776
 H    2.404504   -3.516701    1.960879
 H    4.389381   -1.409241   -1.176041
 H   -3.777136    0.383695    1.319118
 H   -4.752221    2.558745    0.091825
 H    4.381038   -3.209353    0.516442
 H   -1.206960   -0.857429    1.201476
}
memory 20GB
set_num_threads(5)
psi4_io.set_default_path("/scratch/liuchw/Psi4-1_16_Index_0-farH_in17")
set freeze_core True
E, wfn = energy('wb97x-d/6-311+G*',return_wfn=True)
oeprop(wfn,"WIBERG_LOWDIN_INDICES")
clean()
