molecule { 
0 1
 C    2.194857    0.477263    0.602989
 N    1.061891   -0.163655    0.973485
 C   -0.125882   -0.082804    0.201235
 C   -0.058174   -0.059455   -1.188764
 C    1.064988   -1.019045    2.139690
 C   -1.370447   -0.001046    0.819298
 C   -2.521880    0.091867    0.059166
 C   -2.450925    0.110507   -1.322788
 C   -1.214741    0.037733   -1.940607
 H   -1.453690    0.008507    1.895103
 H    0.898847   -0.115299   -1.679404
 O    2.366887    1.140294   -0.388317
 H    0.987192   -2.066821    1.835390
 H    0.229343   -0.795547    2.801152
 H    1.993132   -0.881381    2.690956
 H   -3.479842    0.156654    0.553977
 H   -1.146229    0.052684   -3.018022
 H   -3.352382    0.184352   -1.912099
 H    3.000735    0.323976    1.348146
}
memory 20GB
set_num_threads(5)
psi4_io.set_default_path("/scratch/liuchw/Psi4-3_24_Index_0-farH_in17")
set freeze_core True
E, wfn = energy('wb97x-d/6-311+G*',return_wfn=True)
oeprop(wfn,"WIBERG_LOWDIN_INDICES")
clean()
