molecule { 
0 1
 C    2.238525    0.325827    0.524993
 N    1.082372   -0.270526    0.902980
 C   -0.115945   -0.124177    0.167391
 C   -0.086750   -0.073732   -1.223255
 C    1.056560   -0.980996    2.166483
 C   -1.336657   -0.000628    0.826646
 C   -2.506512    0.145289    0.103742
 C   -2.475530    0.184519   -1.279248
 C   -1.261498    0.079905   -1.936091
 H   -1.380010    0.002102    1.905271
 H    0.853019   -0.154989   -1.742784
 O    2.425211    1.003051   -0.453891
 H    1.909474   -1.657888    2.226688
 H    0.140172   -1.561248    2.238727
 H    1.098088   -0.290430    3.013800
 H   -3.446079    0.238793    0.628276
 H   -1.225339    0.114866   -3.014580
 H   -3.390646    0.302017   -1.839730
 H    3.045228    0.117027    1.255167
}
memory 20GB
set_num_threads(5)
psi4_io.set_default_path("/scratch/liuchw/Psi4-3_24_Index_0-farH_in17")
set freeze_core True
E, wfn = energy('wb97x-d/6-311+G*',return_wfn=True)
oeprop(wfn,"WIBERG_LOWDIN_INDICES")
clean()
