molecule { 
0 1
 C    2.248907    0.293380    0.492925
 N    1.082868   -0.237841    0.928571
 C   -0.123449   -0.088015    0.196362
 C   -0.108415   -0.121680   -1.194976
 C    1.059951   -1.045483    2.127937
 C   -1.332493    0.116651    0.855114
 C   -2.501638    0.274739    0.133788
 C   -2.483461    0.236524   -1.249471
 C   -1.282101    0.040926   -1.907972
 H   -1.372566    0.171335    1.932045
 H    0.821294   -0.272674   -1.717084
 O    2.435532    0.902891   -0.529531
 H    2.022484   -0.968617    2.631703
 H    0.887341   -2.094482    1.872596
 H    0.286129   -0.717227    2.819639
 H   -3.431416    0.434771    0.659764
 H   -1.254788    0.010585   -2.986918
 H   -3.398548    0.361174   -1.808442
 H    3.068052    0.101831    1.214535
}
memory 20GB
set_num_threads(5)
psi4_io.set_default_path("/scratch/liuchw/Psi4-3_24_Index_0-farH_in17")
set freeze_core True
E, wfn = energy('wb97x-d/6-311+G*',return_wfn=True)
oeprop(wfn,"WIBERG_LOWDIN_INDICES")
clean()
