molecule { 
0 1
 C    2.063063   -1.168562    0.404500
 N    1.068467   -0.433991    0.934818
 C   -0.127203   -0.210861    0.184289
 C   -0.175341    0.803947   -0.759424
 C    1.172336    0.236668    2.207740
 C   -1.241506   -1.003333    0.416993
 C   -2.403657   -0.780219   -0.299802
 C   -2.454210    0.231404   -1.244018
 C   -1.340028    1.020076   -1.474905
 H   -1.188732   -1.796395    1.148187
 H    0.702123    1.406630   -0.940234
 O    2.038146   -1.709939   -0.672706
 H    1.983712   -0.199403    2.788203
 H    0.236146    0.128663    2.757647
 H    1.367422    1.305290    2.071551
 H   -3.269985   -1.400223   -0.123398
 H   -1.376577    1.805451   -2.215043
 H   -3.361637    0.402019   -1.803692
 H    2.931146   -1.238439    1.089878
}
memory 20GB
set_num_threads(5)
psi4_io.set_default_path("/scratch/liuchw/Psi4-3_24_Index_0-farH_in17")
set freeze_core True
E, wfn = energy('wb97x-d/6-311+G*',return_wfn=True)
oeprop(wfn,"WIBERG_LOWDIN_INDICES")
clean()
