molecule { 
0 1
 C    2.334672   -0.043006    0.387619
 N    1.096143   -0.296939    0.881009
 C   -0.104652   -0.137985    0.151520
 C   -0.094563    0.163142   -1.210962
 C    1.007206   -0.729568    2.261731
 C   -1.339662   -0.220954    0.797333
 C   -2.518392   -0.055841    0.092088
 C   -2.499323    0.211793   -1.264157
 C   -1.278549    0.325986   -1.905282
 H   -1.410161   -0.400154    1.857426
 H    0.840603    0.259114   -1.733534
 O    2.647098    0.316379   -0.719583
 H    1.973732   -1.105669    2.591014
 H    0.270111   -1.525394    2.361582
 H    0.715010    0.099503    2.913220
 H   -3.459459   -0.131518    0.617194
 H   -1.240346    0.549138   -2.961091
 H   -3.421746    0.338041   -1.810270
 H    3.105958   -0.217283    1.163727
}
memory 20GB
set_num_threads(5)
psi4_io.set_default_path("/scratch/liuchw/Psi4-3_24_Index_0-farH_in17")
set freeze_core True
E, wfn = energy('wb97x-d/6-311+G*',return_wfn=True)
oeprop(wfn,"WIBERG_LOWDIN_INDICES")
clean()
