molecule { 
0 1
 C    1.791906    0.867196    1.319986
 N    1.059050   -0.215571    0.983291
 C   -0.139597   -0.066528    0.233203
 C   -0.330374   -0.791756   -0.936793
 C    1.413105   -1.539654    1.439881
 C   -1.114803    0.826930    0.657444
 C   -2.274859    0.983555   -0.079641
 C   -2.471747    0.249691   -1.236745
 C   -1.496444   -0.635637   -1.663568
 H   -0.955158    1.402146    1.555613
 H    0.435399   -1.467483   -1.288554
 O    1.556592    2.009806    1.017232
 H    2.453684   -1.552742    1.759955
 H    1.279242   -2.268082    0.641347
 H    0.779964   -1.836187    2.282142
 H   -3.028589    1.680956    0.254073
 H   -1.638447   -1.201849   -2.572262
 H   -3.379262    0.371241   -1.808850
 H    2.684024    0.582755    1.912832
}
memory 20GB
set_num_threads(5)
psi4_io.set_default_path("/scratch/liuchw/Psi4-3_24_Index_0-farH_in17")
set freeze_core True
E, wfn = energy('wb97x-d/6-311+G*',return_wfn=True)
oeprop(wfn,"WIBERG_LOWDIN_INDICES")
clean()
