molecule { 
0 1
 C   -0.852552   -0.000673    0.195049
 N    0.251720   -0.061746    1.095293
 C    1.406468    0.573315    0.712590
 C    2.736210   -0.186114    0.762384
 C    0.200207   -1.188522    2.009087
 O    1.362976    1.667697    0.185733
 C   -2.106031    0.374119    0.660639
 C   -3.027051    0.004889   -1.523202
 C   -3.189300    0.376717   -0.199061
 C   -1.778013   -0.372259   -1.985671
 C   -0.691733   -0.385205   -1.128887
 H    1.193716   -1.502974    2.309684
 H   -0.317920   -2.031611    1.547090
 H   -0.358104   -0.901143    2.905058
 N    3.876108    0.640630    0.415441
 H    2.669072   -1.007902    0.039325
 H    2.946143   -0.638341    1.735516
 H   -2.222361    0.671480    1.691654
 H   -4.161472    0.675031    0.164341
 H   -1.647881   -0.665151   -3.016930
 H    0.284634   -0.676280   -1.488168
 H    3.649270    1.145544   -0.441121
 H   -3.872706    0.010861   -2.194367
 H    3.958591    1.384637    1.105719
}
memory 20GB
set_num_threads(5)
psi4_io.set_default_path("/scratch/liuchw/Psi4-3_25_Index_0_GrowFragment_3-farH_in17")
set freeze_core True
E, wfn = energy('wb97x-d/6-311+G*',return_wfn=True)
oeprop(wfn,"WIBERG_LOWDIN_INDICES")
clean()
