molecule { 
0 1
 C   -0.741394   -0.343324    0.206667
 N    0.316601   -0.431265    1.137594
 C    1.498484    0.309696    1.029898
 C    2.506440   -0.076121   -0.044489
 C   -0.059192   -0.668570    2.529351
 O    1.837744    1.057203    1.922112
 C   -2.030483   -0.001992    0.619852
 C   -2.830023   -0.070941   -1.646720
 C   -3.059064    0.119506   -0.296173
 C   -1.552204   -0.390346   -2.069535
 C   -0.520146   -0.520171   -1.158822
 H    0.745417   -1.230406    3.002621
 H   -0.979462   -1.243420    2.561645
 H   -0.200379    0.262375    3.085775
 N    3.726967    0.705745    0.008500
 H    2.109910    0.020321   -1.058378
 H    2.752179   -1.133675    0.098081
 H   -2.242938    0.196775    1.657773
 H   -4.046672    0.381292    0.054340
 H   -1.351063   -0.544260   -3.119400
 H    0.450021   -0.819073   -1.517067
 H    3.478351    1.692897   -0.024449
 H   -3.634509    0.029234   -2.358904
 H    4.135402    0.605518    0.936925
}
memory 20GB
set_num_threads(5)
psi4_io.set_default_path("/scratch/liuchw/Psi4-3_25_Index_0_GrowFragment_3-farH_in17")
set freeze_core True
E, wfn = energy('wb97x-d/6-311+G*',return_wfn=True)
oeprop(wfn,"WIBERG_LOWDIN_INDICES")
clean()
