molecule { 
0 1
 C   -0.626074   -0.327574    0.258689
 N    0.483747   -0.916609    0.915757
 C    1.758855   -0.465834    0.748808
 C    1.901259    1.045155    0.566050
 C    0.284525   -2.286573    1.363075
 O    2.735784   -1.172603    0.905283
 C   -1.753035    0.023809    0.991091
 C   -2.846078    0.731852   -1.024400
 C   -2.858323    0.552372    0.348385
 C   -1.726813    0.373321   -1.757369
 C   -0.621687   -0.162990   -1.122273
 H    1.249475   -2.791649    1.351115
 H   -0.415693   -2.805345    0.708123
 H   -0.110924   -2.293523    2.381063
 N    3.262704    1.470939    0.301904
 H    1.566916    1.523720    1.494118
 H    1.253225    1.427602   -0.226513
 H   -1.756020   -0.115875    2.061347
 H   -3.730904    0.826382    0.922226
 H   -1.717324    0.502233   -2.829415
 H    0.249011   -0.458437   -1.689982
 H    3.867767    1.024582    0.990776
 H   -3.708659    1.146004   -1.523952
 H    3.568256    1.056046   -0.576713
}
memory 20GB
set_num_threads(5)
psi4_io.set_default_path("/scratch/liuchw/Psi4-3_25_Index_0_GrowFragment_3-farH_in17")
set freeze_core True
E, wfn = energy('wb97x-d/6-311+G*',return_wfn=True)
oeprop(wfn,"WIBERG_LOWDIN_INDICES")
clean()
