molecule { 
0 1
 C   -0.640016   -0.370682    0.186388
 N    0.495249   -0.956778    0.786867
 C    1.753595   -0.438893    0.807582
 C    1.964407    0.977447    0.271962
 C    0.288216   -2.226078    1.466216
 O    2.684589   -1.056164    1.291086
 C   -1.799905   -0.204124    0.938710
 C   -2.906347    0.783903   -0.947708
 C   -2.924268    0.367467    0.372372
 C   -1.760460    0.607319   -1.704384
 C   -0.633292    0.033440   -1.145196
 H    1.211564   -2.800793    1.401550
 H   -0.523076   -2.768821    0.985271
 H    0.052501   -2.076180    2.522476
 N    3.360640    1.373939    0.267429
 H    1.405850    1.676752    0.905809
 H    1.579975    1.100697   -0.739865
 H   -1.816702   -0.517577    1.971259
 H   -3.816033    0.493429    0.968208
 H   -1.744041    0.910774   -2.740531
 H    0.235910   -0.147163   -1.759002
 H    3.752050    1.166315    1.185608
 H   -3.782843    1.234842   -1.387184
 H    3.872427    0.743932   -0.347729
}
memory 20GB
set_num_threads(5)
psi4_io.set_default_path("/scratch/liuchw/Psi4-3_25_Index_0_GrowFragment_3-farH_in17")
set freeze_core True
E, wfn = energy('wb97x-d/6-311+G*',return_wfn=True)
oeprop(wfn,"WIBERG_LOWDIN_INDICES")
clean()
