molecule { 
0 1
 C   -0.781159   -0.347109   -0.093190
 N    0.432700   -0.678427    0.560639
 C    1.584383   -0.025829    0.202969
 C    2.611620    0.207812    1.311808
 C    0.332045   -1.352437    1.838210
 O    1.769947    0.437533   -0.903614
 C   -1.903552    0.011032    0.647640
 C   -3.152364    0.333478   -1.378656
 C   -3.080806    0.345193    0.003544
 C   -2.035794   -0.019559   -2.116377
 C   -0.856820   -0.366993   -1.482084
 H    1.180678   -2.024434    1.963435
 H   -0.579492   -1.947650    1.842100
 H    0.307716   -0.662107    2.687312
 N    3.754690    0.983528    0.870649
 H    2.987596   -0.735351    1.722560
 H    2.130771    0.741121    2.138803
 H   -1.861301    0.046155    1.725599
 H   -3.944774    0.623688    0.589117
 H   -2.082483   -0.034133   -3.195019
 H    0.009786   -0.643885   -2.058091
 H    4.140367    0.538525    0.039186
 H   -4.073099    0.598700   -1.876110
 H    3.419335    1.878149    0.516766
}
memory 20GB
set_num_threads(5)
psi4_io.set_default_path("/scratch/liuchw/Psi4-3_25_Index_0_GrowFragment_3-farH_in17")
set freeze_core True
E, wfn = energy('wb97x-d/6-311+G*',return_wfn=True)
oeprop(wfn,"WIBERG_LOWDIN_INDICES")
clean()
