molecule { 
0 1
 C   -0.702600   -0.352542    0.241782
 N    0.319571   -0.410327    1.214345
 C    1.540600    0.220092    1.127787
 C    2.328261    0.168448   -0.175134
 C   -0.101007   -0.672006    2.585870
 O    2.075357    0.647852    2.133206
 C   -1.977182    0.088027    0.602997
 C   -2.743512   -0.131263   -1.663045
 C   -2.984086    0.188615   -0.338294
 C   -1.482065   -0.561785   -2.032104
 C   -0.468995   -0.668242   -1.095433
 H    0.704020   -1.207033    3.088624
 H   -1.001756   -1.279957    2.575024
 H   -0.285336    0.251111    3.142512
 N    3.631338    0.799124   -0.074424
 H    1.790402    0.644253   -1.002424
 H    2.482125   -0.878488   -0.455798
 H   -2.186629    0.375060    1.621098
 H   -3.961296    0.531548   -0.031850
 H   -1.278616   -0.823081   -3.059966
 H    0.484002   -1.059211   -1.405968
 H    3.505280    1.744685    0.283451
 H   -3.530187   -0.048437   -2.397048
 H    4.152298    0.340555    0.671991
}
memory 20GB
set_num_threads(5)
psi4_io.set_default_path("/scratch/liuchw/Psi4-3_25_Index_0_GrowFragment_3-farH_in17")
set freeze_core True
E, wfn = energy('wb97x-d/6-311+G*',return_wfn=True)
oeprop(wfn,"WIBERG_LOWDIN_INDICES")
clean()
