molecule { 
0 1
H -0.801015716100 -0.492273541475 -0.317931828638
N 0.000283338594 -0.000212192736 0.069038515058
H 0.825677269612 -0.445001887935 -0.324602580948
H -0.028598359184 0.940223709608 -0.316710900465
}
memory 8.333333333333334GB
set_num_threads(1)
psi4_io.set_default_path("/scratch/bdw2292/Psi4-43_Index_0-farH_in17")
set maxiter 500
set freeze_core True
set PROPERTIES_ORIGIN ["COM"]
set cubeprop_tasks ['esp']
E, wfn = properties('mp2/aug-cc-pVTZ',properties=['dipole'],return_wfn=True)
cubeprop(wfn)
fchk(wfn, "43_Index_0-esp.fchk")
oeprop(wfn,"GRID_ESP","WIBERG_LOWDIN_INDICES","MULLIKEN_CHARGES")
clean()
