%RWF=/scratch/bdw2292/Gau-43_Index_0-farH_in17/,16.666666666666668GB
%Nosave
%Chk=43_Index_0-dma_temp.chk
%Mem=8.333333333333334GB
%Nproc=1
#P MP2/6-311G** Sp Density=MP2 MaxDisk=16.666666666666668GB 

43_Index_0 Gaussian SP Calculation on node44.bme.utexas.edu

0 1
 H   -0.801016   -0.492274   -0.317932
 N    0.000283   -0.000212    0.069039
 H    0.825677   -0.445002   -0.324603
 H   -0.028598    0.940224   -0.316711



