molecule { 
1 1
N 0.046432598034 0.136604734547 -0.285468151044
C -0.967001984074 0.982373863589 0.427372781520
C -0.459446779707 -1.247387487337 -0.560131928711
C 1.379293623597 0.127419817918 0.422134070166
H 0.194303667274 0.579704341679 -1.200942811016
H -1.931533271312 0.867339882238 -0.065141681961
H -0.638072067998 2.020077880281 0.402206291166
H 0.313568035832 -1.802372227766 -1.090509022346
H -1.359665543496 -1.178186648538 -1.169294685991
H 1.422814257421 0.966636171424 1.113804108647
H 1.454322170162 -0.797796501877 0.992842939887
H 2.180086837261 0.176977473421 -0.313228423428
H -1.036779424363 0.631495046853 1.457092709859
H -0.682727265968 -1.723603573770 0.394027422843
}
memory 8.333333333333334GB
set_num_threads(1)
psi4_io.set_default_path("/scratch/bdw2292/Psi4-40_Index_0-farH_in17")
set maxiter 500
set freeze_core True
set PROPERTIES_ORIGIN ["COM"]
set cubeprop_tasks ['esp']
E, wfn = properties('mp2/aug-cc-pVTZ',properties=['dipole'],return_wfn=True)
cubeprop(wfn)
fchk(wfn, "40_Index_0-esp.fchk")
oeprop(wfn,"GRID_ESP","WIBERG_LOWDIN_INDICES","MULLIKEN_CHARGES")
clean()
