%RWF=/scratch/bdw2292/Gau-40_Index_0-farH_in17/,16.666666666666668GB
%Nosave
%Chk=40_Index_0-opt_1.chk
%Mem=8.333333333333334GB
%Nproc=1
#P opt=(ModRedundant,maxcycles=400,Loose) MP2/6-31G* MaxDisk=16.666666666666668GB 

40_Index_0 Gaussian OPT Calculation on node44.bme.utexas.edu

1 1
 N    0.018400   -0.016900   -0.399700
 C   -0.002500    1.350800    0.086000
 C   -1.182300   -0.656600    0.159300
 C    1.216700   -0.722800   -0.046500
 H   -0.081800   -0.002900   -1.426700
 H   -1.052400    1.714900   -0.081500
 H    0.673000    2.019200   -0.453400
 H   -1.274700   -1.704800   -0.162100
 H   -2.033000   -0.019300   -0.202700
 H    2.047100   -0.035200    0.256300
 H    1.078800   -1.462200    0.763000
 H    1.616200   -1.283300   -0.931200
 H    0.135500    1.340800    1.183100
 H   -1.159200   -0.521700    1.255800

3 1 2 6 F
2 1 3 8 F
2 1 4 10 F

