%RWF=/scratch/bdw2292/Gau-28_Index_0-farH_in17/,16.666666666666668GB
%Nosave
%Chk=28_Index_0-dma_temp.chk
%Mem=8.333333333333334GB
%Nproc=1
#P MP2/6-311G** Sp Density=MP2 MaxDisk=16.666666666666668GB 

28_Index_0 Gaussian SP Calculation on node44.bme.utexas.edu

0 1
 C   -0.419193   -0.337527    0.209993
 N    1.021936   -0.557850    0.363466
 C   -0.662930    0.961995   -0.542984
 H   -0.860747   -0.282166    1.209555
 H   -0.931102   -1.159632   -0.316819
 H   -1.695096    1.025307   -0.897355
 H   -0.023224    1.003765   -1.430901
 H    1.187162   -1.445820    0.835134
 H    1.438048   -0.654992   -0.561737
 H   -0.429529    1.829080    0.076867



