molecule { 
0 1
 C    0.100500   -0.578200    0.278200
 N    1.276000    0.191600    0.424200
 C   -1.018000    0.297000   -0.208400
 H   -0.195400   -0.950800    1.289800
 H    0.280600   -1.467700   -0.341800
 H   -1.883800   -0.263300   -0.587600
 H   -0.697300    1.017000   -1.001500
 H    2.123400   -0.278100    0.714600
 H    1.334500    1.083500   -0.039400
 H   -1.320600    0.949100    0.656200
}
set {
  geom_maxiter 400
  g_convergence GAU
  dynamic_level 1
}
set optking { 
  frozen_dihedral = ("
    2 1 3 6
, 8 2 1 3
  ")
}
memory 8.333333333333334GB
set_num_threads(1)
psi4_io.set_default_path("/scratch/bdw2292/Psi4-28_Index_0-farH_in17")
for _ in range(1):
  try:
    set opt_coordinates both
    optimize('mp2/6-31G*')
    break
  except OptimizationConvergenceError:
    break
  else:
    try:
      set opt_coordinates cartesian
      optimize('mp2/6-31G*')
      break
    except OptimizationConvergenceError:
      pass
clean()
