%RWF=/scratch/bdw2292/Gau-28_Index_0-farH_in17/,16.666666666666668GB
%Nosave
%Chk=28_Index_0-opt_1.chk
%Mem=8.333333333333334GB
%Nproc=1
#P opt=(ModRedundant,maxcycles=400,Loose) MP2/6-31G* MaxDisk=16.666666666666668GB 

28_Index_0 Gaussian OPT Calculation on node44.bme.utexas.edu

0 1
 C    0.100500   -0.578200    0.278200
 N    1.276000    0.191600    0.424200
 C   -1.018000    0.297000   -0.208400
 H   -0.195400   -0.950800    1.289800
 H    0.280600   -1.467700   -0.341800
 H   -1.883800   -0.263300   -0.587600
 H   -0.697300    1.017000   -1.001500
 H    2.123400   -0.278100    0.714600
 H    1.334500    1.083500   -0.039400
 H   -1.320600    0.949100    0.656200

2 1 3 6 F
8 2 1 3 F

