molecule { 
0 1
C -0.419192888017 -0.337527164871 0.209992577159
N 1.021936093746 -0.557850489588 0.363466244025
C -0.662929911724 0.961994774102 -0.542983941290
H -0.860746778379 -0.282166291817 1.209555051244
H -0.931101874619 -1.159631777980 -0.316819418822
H -1.695095628955 1.025306546641 -0.897355328721
H -0.023224143639 1.003764874456 -1.430900611472
H 1.187162143772 -1.445820327089 0.835134206808
H 1.438047963933 -0.654991824094 -0.561736772590
H -0.429528928667 1.829080057713 0.076866694509
}
memory 8.333333333333334GB
set_num_threads(1)
psi4_io.set_default_path("/scratch/bdw2292/Psi4-28_Index_0-farH_in17")
set maxiter 500
set freeze_core True
set PROPERTIES_ORIGIN ["COM"]
set cubeprop_tasks ['esp']
E, wfn = properties('mp2/aug-cc-pVTZ',properties=['dipole'],return_wfn=True)
cubeprop(wfn)
fchk(wfn, "28_Index_0-esp.fchk")
oeprop(wfn,"GRID_ESP","WIBERG_LOWDIN_INDICES","MULLIKEN_CHARGES")
clean()
