molecule { 
0 1
C         -6.95280        0.08910        0.82430
N         -6.53810       -0.48150       -0.39510
C         -8.43350        0.34930        0.92000
H         -6.37020        1.01670        1.06340
H         -6.70880       -0.63220        1.65040
H         -8.57130        1.39150        1.26690
H         -8.93000       -0.30450        1.67690
H         -6.75100        0.15890       -1.15990
H         -7.02990       -1.36290       -0.54270
H         -8.86250        0.15940       -0.04170
}
memory 100GB
set_num_threads(12)
psi4_io.set_default_path("/scratch/bdw2292/Psi4-farH_in17")
set maxiter 500
set freeze_core True
set PROPERTIES_ORIGIN ["COM"]
set cubeprop_tasks ['esp']
E, wfn = properties('hf/MINIX',properties=['dipole'],return_wfn=True)
cubeprop(wfn)
fchk(wfn, "farH_in17-esp_frag.fchk")
oeprop(wfn,"WIBERG_LOWDIN_INDICES","MULLIKEN_CHARGES")
clean()
